"Displacements:0","Displacements:1","Stress/Strain:0","Stress/Strain:1","Stress/Strain:2","Stress/Strain:3","Stress/Strain:4","Stress/Strain:5","Stress/Strain:6","Stress/Strain:7","Stress/Strain:8","Stress/Strain:9","Stress/Strain:10","Stress/Strain:11","Stress/Strain:12","Principal Stress:0","Principal Stress:1","Principal Stress:2","Principal Stress:3","Principal Stress:4","Principal Stress:5","Principal Stress:6","nodes:0","nodes:1","nodes:2"
0.0004168,0.00043939,0.050175,0.013884,0.019218,0.012613,0,0,0.080489,-0.013868,0,0.065588,0,0,0,0.054666,0.0093935,0.019218,17.474,0.027759,0.041337,3.3196e-06,0,0,0
0.00080489,0.00083163,0.045547,0.0084422,0.016197,0.0094431,0,0,0.07631,-0.020162,0,0.049104,0,0,0,0.048358,0.0056307,0.016197,13.274,0.023395,0.038614,2.5102e-06,0.01,0,0
0.0015262,0.0015415,0.037946,0.0022622,0.012062,0.0048389,0,0,0.067297,-0.02548,0,0.025162,0,0,0,0.038712,0.0014959,0.012062,7.3672,0.017423,0.033219,1.3436e-06,0.02,0,0
0.0021508,0.0021285,0.032895,0.0010408,0.010181,0.0027779,0,0,0.059058,-0.023764,0,0.014445,0,0,0,0.033183,0.000753,0.010181,4.8189,0.014706,0.028895,8.3043e-07,0.03,0,0
0.0027074,0.0026312,0.029527,0.00039798,0.0089774,0.0018039,0,0,0.053428,-0.022306,0,0.0093802,0,0,0,0.029658,0.00026632,0.0089774,3.4497,0.012967,0.026149,5.9594e-07,0.04,0,0
0.0032194,0.0030687,0.027348,0.00015981,0.0082525,0.0012437,0,0,0.049649,-0.021041,0,0.0064675,0,0,0,0.027416,9.2443e-05,0.0082525,2.5614,0.01192,0.024295,4.7125e-07,0.05,0,0
0.0037003,0.0034531,0.025836,4.3148e-05,0.0077638,0.00088567,0,0,0.046988,-0.020074,0,0.0046055,0,0,0,0.025872,6.9605e-06,0.0077638,1.9291,0.011214,0.022991,3.9615e-07,0.06,0,0
0.0041592,0.0037921,0.024768,-1.4913e-05,0.0074259,0.00063432,0,0,0.045089,-0.019346,0,0.0032984,0,0,0,0.024787,-3.4431e-05,0.0074259,1.4412,0.010726,0.022059,3.4829e-07,0.07,0,0
0.0046021,0.0040914,0.024015,-4.5367e-05,0.0071909,0.00044649,0,0,0.043743,-0.018814,0,0.0023218,0,0,0,0.024025,-5.5509e-05,0.0071909,1.0467,0.010387,0.021399,3.17e-07,0.08,0,0
0.005034,0.0043553,0.023501,-6.0806e-05,0.007032,0.00029985,0,0,0.042819,-0.018441,0,0.0015592,0,0,0,0.023506,-6.5642e-05,0.007032,0.71876,0.010157,0.020945,2.9673e-07,0.09,0,0
0.0054585,0.0045876,0.023174,-6.7615e-05,0.006932,0.00018203,0,0,0.04223,-0.018199,0,0.00094657,0,0,0,0.023176,-6.9575e-05,0.006932,0.44276,0.010013,0.020655,2.8428e-07,0.1,0,0
0.0058786,0.0047916,0.023,-6.9162e-05,0.0068792,8.578e-05,0,0,0.041914,-0.018066,0,0.00044606,0,0,0,0.023,-6.9746e-05,0.0068792,0.21021,0.0099366,0.020499,2.777e-07,0.11,0,0
0.0062968,0.0049705,0.022949,-6.7379e-05,0.0068646,6.6298e-06,0,0,0.04182,-0.018023,0,3.4475e-05,0,0,0,0.02295,-6.7515e-05,0.0068646,0.015834,0.0099155,0.020452,2.7571e-07,0.12,0,0
0.006715,0.0051273,0.023001,-6.344e-05,0.0068812,-5.8265e-05,0,0,0.041911,-0.018056,0,-0.00030298,0,0,0,0.023001,-6.3678e-05,0.0068812,-0.14401,0.0099394,0.020495,2.7741e-07,0.13,0,0
0.007135,0.0052648,0.023135,-5.8093e-05,0.006923,-0.00011081,0,0,0.04215,-0.018151,0,-0.00057619,0,0,0,0.023135,-5.8722e-05,0.006923,-0.27222,0.0099998,0.02061,2.8215e-07,0.14,0,0
0.007558,0.0053859,0.023335,-5.1835e-05,0.0069849,-0.00015234,0,0,0.04251,-0.018295,0,-0.00079217,0,0,0,0.023336,-5.2963e-05,0.0069849,-0.37139,0.010089,0.020784,2.8941e-07,0.15,0,0
0.0079852,0.0054934,0.023586,-4.5007e-05,0.0070623,-0.00018392,0,0,0.042962,-0.018479,0,-0.00095638,0,0,0,0.023588,-4.662e-05,0.0070623,-0.44412,0.010201,0.021002,2.9874e-07,0.16,0,0
0.0084173,0.0055898,0.023875,-3.7852e-05,0.0071511,-0.00020644,0,0,0.043482,-0.018691,0,-0.0010735,0,0,0,0.023877,-3.986e-05,0.0071511,-0.49308,0.010329,0.021254,3.0973e-07,0.17,0,0
0.0088548,0.0056778,0.024189,-3.0556e-05,0.0072476,-0.00022077,0,0,0.044048,-0.018923,0,-0.001148,0,0,0,0.024192,-3.2827e-05,0.0072476,-0.52108,0.010469,0.021528,3.2199e-07,0.18,0,0
0.0092982,0.0057598,0.024518,-2.3277e-05,0.0073483,-0.00022775,0,0,0.04464,-0.019166,0,-0.0011843,0,0,0,0.02452,-2.5669e-05,0.0073483,-0.53096,0.010614,0.021814,3.3516e-07,0.19,0,0
0.0097476,0.005838,0.024851,-1.6165e-05,0.0074503,-0.00022825,0,0,0.045241,-0.019413,0,-0.0011869,0,0,0,0.024853,-1.8545e-05,0.0074503,-0.52556,0.010762,0.022105,3.4886e-07,0.2,0,0
0.010203,0.0059145,0.025179,-9.3766e-06,0.0075509,-0.00022312,0,0,0.045833,-0.019657,0,-0.0011602,0,0,0,0.025181,-1.1629e-05,0.0075509,-0.50755,0.010907,0.022391,3.6275e-07,0.21,0,0
0.010664,0.0059912,0.025496,-3.0716e-06,0.0076478,-0.00021321,0,0,0.046405,-0.019892,0,-0.0011087,0,0,0,0.025498,-5.1108e-06,0.0076478,-0.47939,0.011047,0.022667,3.7649e-07,0.22,0,0
0.011131,0.0060697,0.025795,2.5954e-06,0.0077391,-0.00019929,0,0,0.046944,-0.020115,0,-0.0010363,0,0,0,0.025796,8.2701e-07,0.0077391,-0.44324,0.011179,0.022928,3.8976e-07,0.23,0,0
0.011603,0.0061516,0.02607,7.4942e-06,0.0078232,-0.0001821,0,0,0.047441,-0.020321,0,-0.0009469,0,0,0,0.026071,6.0265e-06,0.0078232,-0.40098,0.0113,0.023168,4.0227e-07,0.24,0,0
0.01208,0.0062379,0.026318,1.1538e-05,0.0078988,-0.0001623,0,0,0.04789,-0.020507,0,-0.00084394,0,0,0,0.026319,1.0377e-05,0.0078988,-0.35419,0.011409,0.023385,4.1377e-07,0.25,0,0
0.012561,0.0063297,0.026535,1.4695e-05,0.007965,-0.00014053,0,0,0.048283,-0.020671,0,-0.00073075,0,0,0,0.026536,1.3825e-05,0.007965,-0.30429,0.011505,0.023575,4.2403e-07,0.26,0,0
0.013046,0.0064278,0.02672,1.6989e-05,0.008021,-0.00011744,0,0,0.048616,-0.02081,0,-0.00061066,0,0,0,0.02672,1.638e-05,0.008021,-0.2526,0.011586,0.023736,4.3286e-07,0.27,0,0
0.013533,0.0065325,0.02687,1.8486e-05,0.0080664,-9.3675e-05,0,0,0.048888,-0.020925,0,-0.00048711,0,0,0,0.02687,1.8094e-05,0.0080664,-0.2004,0.011652,0.023868,4.4015e-07,0.28,0,0
0.014023,0.0066442,0.026985,1.9274e-05,0.0081012,-6.9931e-05,0,0,0.049097,-0.021013,0,-0.00036364,0,0,0,0.026985,1.905e-05,0.0081012,-0.14898,0.011702,0.02397,4.4581e-07,0.29,0,0
0.014515,0.006763,0.027066,1.9444e-05,0.0081257,-4.6895e-05,0,0,0.049245,-0.021076,0,-0.00024386,0,0,0,0.027066,1.9337e-05,0.0081257,-0.099608,0.011737,0.024042,4.4983e-07,0.3,0,0
0.015008,0.0068885,0.027115,1.9077e-05,0.0081402,-2.5236e-05,0,0,0.049334,-0.021115,0,-0.00013123,0,0,0,0.027115,1.9039e-05,0.0081402,-0.05351,0.011758,0.024085,4.5226e-07,0.31,0,0
0.015502,0.0070205,0.027133,1.8233e-05,0.0081455,-5.5575e-06,0,0,0.049369,-0.021131,0,-2.8899e-05,0,0,0,0.027133,1.8224e-05,0.0081455,-0.011791,0.011766,0.024102,4.532e-07,0.32,0,0
0.015996,0.0071585,0.027125,1.6962e-05,0.0081427,1.1638e-05,0,0,0.049355,-0.021127,0,6.052e-05,0,0,0,0.027125,1.6951e-05,0.0081427,0.024624,0.011762,0.024096,4.5281e-07,0.33,0,0
0.016489,0.0073016,0.027095,1.5303e-05,0.008133,2.598e-05,0,0,0.0493,-0.021106,0,0.0001351,0,0,0,0.027095,1.5272e-05,0.008133,0.055039,0.011748,0.02407,4.5129e-07,0.34,0,0
0.016982,0.0074493,0.027045,1.3294e-05,0.0081176,3.7242e-05,0,0,0.049212,-0.021071,0,0.00019366,0,0,0,0.027045,1.3236e-05,0.0081176,0.079022,0.011725,0.024028,4.4886e-07,0.35,0,0
0.017473,0.0076005,0.026982,1.0978e-05,0.0080979,4.5343e-05,0,0,0.049099,-0.021026,0,0.00023578,0,0,0,0.026982,1.0893e-05,0.0080979,0.096404,0.011697,0.023974,4.4576e-07,0.36,0,0
0.017964,0.0077545,0.026909,8.4029e-06,0.0080754,5.0339e-05,0,0,0.048969,-0.020974,0,0.00026176,0,0,0,0.02691,8.2977e-06,0.0080754,0.10728,0.011664,0.023911,4.4222e-07,0.37,0,0
0.018453,0.0079102,0.026832,5.6227e-06,0.0080513,5.2402e-05,0,0,0.04883,-0.020919,0,0.00027249,0,0,0,0.026832,5.5085e-06,0.0080513,0.11195,0.01163,0.023844,4.3845e-07,0.38,0,0
0.01894,0.0080668,0.026753,2.6963e-06,0.0080268,5.1797e-05,0,0,0.048689,-0.020863,0,0.00026934,0,0,0,0.026754,2.5843e-06,0.0080268,0.11094,0.011594,0.023777,4.3466e-07,0.39,0,0
0.019426,0.0082235,0.026678,-3.1543e-07,0.0080032,4.8855e-05,0,0,0.048554,-0.020809,0,0.00025405,0,0,0,0.026678,-4.156e-07,0.0080032,0.1049,0.01156,0.023712,4.3103e-07,0.4,0,0
0.019911,0.0083793,0.026608,-3.3524e-06,0.0079813,4.3955e-05,0,0,0.048429,-0.02076,0,0.00022856,0,0,0,0.026608,-3.434e-06,0.0079813,0.09459,0.011529,0.023652,4.277e-07,0.41,0,0
0.020395,0.0085336,0.026546,-6.3571e-06,0.0079619,3.749e-05,0,0,0.048319,-0.020718,0,0.00019495,0,0,0,0.026546,-6.4171e-06,0.0079619,0.08084,0.011501,0.0236,4.2479e-07,0.42,0,0
0.020878,0.0086857,0.026495,-9.2765e-06,0.0079457,2.9858e-05,0,0,0.048228,-0.020683,0,0.00015526,0,0,0,0.026495,-9.3151e-06,0.0079457,0.06449,0.011477,0.023557,4.2239e-07,0.43,0,0
0.02136,0.008835,0.026455,-1.2063e-05,0.007933,2.1438e-05,0,0,0.048158,-0.020657,0,0.00011148,0,0,0,0.026455,-1.2084e-05,0.007933,0.046362,0.011459,0.023524,4.2055e-07,0.44,0,0
0.021841,0.008981,0.026428,-1.4676e-05,0.0079241,1.2577e-05,0,0,0.048111,-0.020641,0,6.5399e-05,0,0,0,0.026428,-1.4684e-05,0.0079241,0.027224,0.011446,0.023502,4.1931e-07,0.45,0,0
0.022322,0.0091233,0.026414,-1.7081e-05,0.0079192,3.583e-06,0,0,0.048088,-0.020634,0,1.8632e-05,0,0,0,0.026414,-1.7084e-05,0.0079192,0.0077652,0.011439,0.023491,4.1869e-07,0.46,0,0
0.022803,0.0092616,0.026413,-1.9254e-05,0.0079183,-5.2821e-06,0,0,0.048088,-0.020638,0,-2.7467e-05,0,0,0,0.026413,-1.9257e-05,0.0079183,-0.011423,0.011438,0.023492,4.1868e-07,0.47,0,0
0.023284,0.0093957,0.026425,-2.1176e-05,0.0079212,-1.3807e-05,0,0,0.04811,-0.02065,0,-7.1794e-05,0,0,0,0.026425,-2.1186e-05,0.0079212,-0.029856,0.011442,0.023504,4.1927e-07,0.48,0,0
0.023765,0.0095252,0.026449,-2.2837e-05,0.0079278,-2.1827e-05,0,0,0.048155,-0.020672,0,-0.0001135,0,0,0,0.026449,-2.286e-05,0.0079278,-0.047159,0.011451,0.023527,4.2043e-07,0.49,0,0
0.024247,0.0096502,0.026484,-2.4236e-05,0.0079378,-2.9226e-05,0,0,0.048219,-0.020701,0,-0.00015198,0,0,0,0.026484,-2.4275e-05,0.0079378,-0.063061,0.011466,0.023559,4.2213e-07,0.5,0,0
0.024729,0.0097706,0.026529,-2.5377e-05,0.007951,-3.5928e-05,0,0,0.048302,-0.020739,0,-0.00018683,0,0,0,0.026529,-2.5434e-05,0.007951,-0.077389,0.011485,0.0236,4.2431e-07,0.51,0,0
0.025213,0.0098862,0.026583,-2.6269e-05,0.007967,-4.1892e-05,0,0,0.048402,-0.020783,0,-0.00021784,0,0,0,0.026583,-2.6346e-05,0.007967,-0.090052,0.011508,0.023649,4.2693e-07,0.52,0,0
0.025697,0.0099972,0.026645,-2.6928e-05,0.0079856,-4.7107e-05,0,0,0.048516,-0.020832,0,-0.00024496,0,0,0,0.026646,-2.7025e-05,0.0079856,-0.10103,0.011535,0.023705,4.2996e-07,0.53,0,0
0.026183,0.010104,0.026715,-2.7372e-05,0.0080062,-5.1585e-05,0,0,0.048642,-0.020887,0,-0.00026824,0,0,0,0.026715,-2.7488e-05,0.0080062,-0.11034,0.011565,0.023767,4.3333e-07,0.54,0,0
0.02667,0.010205,0.02679,-2.7621e-05,0.0080288,-5.5355e-05,0,0,0.04878,-0.020947,0,-0.00028784,0,0,0,0.02679,-2.7753e-05,0.0080288,-0.11808,0.011597,0.023834,4.3701e-07,0.55,0,0
0.027159,0.010303,0.026871,-2.7697e-05,0.0080529,-5.8458e-05,0,0,0.048926,-0.021009,0,-0.00030398,0,0,0,0.026871,-2.7844e-05,0.0080529,-0.12433,0.011632,0.023905,4.4096e-07,0.56,0,0
0.027649,0.010396,0.026955,-2.7621e-05,0.0080782,-6.0944e-05,0,0,0.049079,-0.021075,0,-0.00031691,0,0,0,0.026955,-2.778e-05,0.0080782,-0.12922,0.011668,0.02398,4.4512e-07,0.57,0,0
0.02814,0.010485,0.027042,-2.7414e-05,0.0081045,-6.2866e-05,0,0,0.049239,-0.021143,0,-0.0003269,0,0,0,0.027043,-2.7583e-05,0.0081045,-0.13287,0.011707,0.024058,4.4947e-07,0.58,0,0
0.028633,0.010569,0.027132,-2.7097e-05,0.0081316,-6.4278e-05,0,0,0.049402,-0.021213,0,-0.00033424,0,0,0,0.027133,-2.7273e-05,0.0081316,-0.13542,0.011746,0.024138,4.5396e-07,0.59,0,0
0.029128,0.01065,0.027224,-2.6689e-05,0.0081592,-6.5233e-05,0,0,0.049569,-0.021283,0,-0.00033921,0,0,0,0.027224,-2.6869e-05,0.0081592,-0.13698,0.011786,0.024219,4.5857e-07,0.6,0,0
0.029625,0.010727,0.027317,-2.6207e-05,0.0081872,-6.5783e-05,0,0,0.049737,-0.021355,0,-0.00034207,0,0,0,0.027317,-2.639e-05,0.0081872,-0.13767,0.011826,0.024301,4.6326e-07,0.61,0,0
0.030123,0.0108,0.02741,-2.5666e-05,0.0082154,-6.5974e-05,0,0,0.049907,-0.021427,0,-0.00034306,0,0,0,0.02741,-2.5849e-05,0.0082154,-0.13761,0.011867,0.024384,4.6802e-07,0.62,0,0
0.030623,0.01087,0.027504,-2.508e-05,0.0082436,-6.5851e-05,0,0,0.050076,-0.021499,0,-0.00034242,0,0,0,0.027504,-2.5262e-05,0.0082436,-0.1369,0.011907,0.024466,4.728e-07,0.63,0,0
0.031124,0.010936,0.027597,-2.4461e-05,0.0082717,-6.5452e-05,0,0,0.050245,-0.02157,0,-0.00034035,0,0,0,0.027597,-2.464e-05,0.0082717,-0.13562,0.011948,0.024548,4.776e-07,0.64,0,0
0.031628,0.010999,0.027689,-2.3819e-05,0.0082996,-6.4814e-05,0,0,0.050413,-0.021641,0,-0.00033703,0,0,0,0.027689,-2.3994e-05,0.0082996,-0.13386,0.011988,0.02463,4.8239e-07,0.65,0,0
0.032133,0.011059,0.02778,-2.3162e-05,0.0083271,-6.3967e-05,0,0,0.050578,-0.021711,0,-0.00033263,0,0,0,0.02778,-2.3332e-05,0.0083271,-0.13169,0.012028,0.02471,4.8716e-07,0.66,0,0
0.032639,0.011116,0.02787,-2.2499e-05,0.0083543,-6.2939e-05,0,0,0.050741,-0.02178,0,-0.00032728,0,0,0,0.02787,-2.2663e-05,0.0083543,-0.12916,0.012067,0.02479,4.9189e-07,0.67,0,0
0.033148,0.011169,0.027959,-2.1834e-05,0.008381,-6.1754e-05,0,0,0.050902,-0.021847,0,-0.00032112,0,0,0,0.027959,-2.1992e-05,0.008381,-0.12634,0.012106,0.024868,4.9657e-07,0.68,0,0
0.033657,0.01122,0.028045,-2.1174e-05,0.0084072,-6.0432e-05,0,0,0.051059,-0.021914,0,-0.00031425,0,0,0,0.028045,-2.1324e-05,0.0084072,-0.12326,0.012144,0.024944,5.0118e-07,0.69,0,0
0.034169,0.011269,0.02813,-2.0522e-05,0.0084328,-5.8994e-05,0,0,0.051212,-0.021979,0,-0.00030677,0,0,0,0.02813,-2.0665e-05,0.0084328,-0.11997,0.012181,0.025019,5.0572e-07,0.7,0,0
0.034682,0.011315,0.028212,-1.9882e-05,0.0084577,-5.7454e-05,0,0,0.051362,-0.022042,0,-0.00029876,0,0,0,0.028212,-2.0017e-05,0.0084577,-0.11651,0.012217,0.025092,5.1016e-07,0.71,0,0
0.035196,0.011358,0.028292,-1.9256e-05,0.008482,-5.5827e-05,0,0,0.051507,-0.022103,0,-0.0002903,0,0,0,0.028293,-1.9383e-05,0.008482,-0.11289,0.012252,0.025163,5.1452e-07,0.72,0,0
0.035712,0.011399,0.02837,-1.8647e-05,0.0085055,-5.4125e-05,0,0,0.051649,-0.022163,0,-0.00028145,0,0,0,0.02837,-1.8766e-05,0.0085055,-0.10916,0.012286,0.025231,5.1876e-07,0.73,0,0
0.036229,0.011437,0.028446,-1.8056e-05,0.0085283,-5.2359e-05,0,0,0.051785,-0.022221,0,-0.00027227,0,0,0,0.028446,-1.8168e-05,0.0085283,-0.10532,0.012319,0.025298,5.229e-07,0.74,0,0
0.036747,0.011474,0.028519,-1.7486e-05,0.0085504,-5.0538e-05,0,0,0.051918,-0.022276,0,-0.0002628,0,0,0,0.028519,-1.7589e-05,0.0085504,-0.1014,0.012351,0.025362,5.2691e-07,0.75,0,0
0.037267,0.011508,0.028589,-1.6935e-05,0.0085716,-4.8671e-05,0,0,0.052045,-0.02233,0,-0.00025309,0,0,0,0.028589,-1.7031e-05,0.0085716,-0.097422,0.012381,0.025424,5.308e-07,0.76,0,0
0.037788,0.011541,0.028656,-1.6407e-05,0.008592,-4.6764e-05,0,0,0.052168,-0.022382,0,-0.00024317,0,0,0,0.028657,-1.6495e-05,0.008592,-0.09339,0.012411,0.025484,5.3456e-07,0.77,0,0
0.038311,0.011571,0.028721,-1.5901e-05,0.0086116,-4.4825e-05,0,0,0.052285,-0.022432,0,-0.00023309,0,0,0,0.028721,-1.5982e-05,0.0086116,-0.08932,0.012439,0.025541,5.3819e-07,0.78,0,0
0.038834,0.0116,0.028783,-1.5418e-05,0.0086304,-4.2859e-05,0,0,0.052398,-0.022479,0,-0.00022287,0,0,0,0.028784,-1.5491e-05,0.0086304,-0.085221,0.012466,0.025596,5.4167e-07,0.79,0,0
0.039359,0.011626,0.028843,-1.4957e-05,0.0086483,-4.0871e-05,0,0,0.052505,-0.022525,0,-0.00021253,0,0,0,0.028843,-1.5024e-05,0.0086483,-0.081104,0.012492,0.025648,5.4501e-07,0.8,0,0
0.039884,0.011651,0.028899,-1.452e-05,0.0086654,-3.8864e-05,0,0,0.052608,-0.022568,0,-0.00020209,0,0,0,0.028899,-1.4581e-05,0.0086654,-0.076975,0.012517,0.025698,5.4821e-07,0.81,0,0
0.040411,0.011675,0.028953,-1.4107e-05,0.0086816,-3.6844e-05,0,0,0.052705,-0.022609,0,-0.00019159,0,0,0,0.028953,-1.4161e-05,0.0086816,-0.07284,0.01254,0.025745,5.5126e-07,0.82,0,0
0.040938,0.011697,0.029003,-1.3716e-05,0.0086969,-3.4812e-05,0,0,0.052797,-0.022648,0,-0.00018102,0,0,0,0.029004,-1.3765e-05,0.0086969,-0.068705,0.012562,0.02579,5.5415e-07,0.83,0,0
0.041467,0.011717,0.029051,-1.3349e-05,0.0087114,-3.2772e-05,0,0,0.052884,-0.022684,0,-0.00017041,0,0,0,0.029051,-1.3392e-05,0.0087114,-0.064574,0.012583,0.025832,5.5689e-07,0.84,0,0
0.041996,0.011736,0.029096,-1.3006e-05,0.008725,-3.0725e-05,0,0,0.052965,-0.022719,0,-0.00015977,0,0,0,0.029096,-1.3043e-05,0.008725,-0.06045,0.012603,0.025872,5.5947e-07,0.85,0,0
0.042526,0.011753,0.029138,-1.2685e-05,0.0087377,-2.8675e-05,0,0,0.053042,-0.022751,0,-0.00014911,0,0,0,0.029138,-1.2718e-05,0.0087377,-0.056336,0.012621,0.025909,5.6189e-07,0.86,0,0
0.043057,0.011769,0.029177,-1.2388e-05,0.0087495,-2.6622e-05,0,0,0.053113,-0.022781,0,-0.00013843,0,0,0,0.029177,-1.2416e-05,0.0087495,-0.052234,0.012638,0.025943,5.6415e-07,0.87,0,0
0.043588,0.011784,0.029214,-1.2113e-05,0.0087605,-2.4568e-05,0,0,0.053178,-0.022809,0,-0.00012775,0,0,0,0.029214,-1.2137e-05,0.0087605,-0.048145,0.012654,0.025975,5.6624e-07,0.88,0,0
0.04412,0.011797,0.029247,-1.1862e-05,0.0087705,-2.2513e-05,0,0,0.053239,-0.022834,0,-0.00011707,0,0,0,0.029247,-1.1882e-05,0.0087705,-0.044069,0.012669,0.026005,5.6818e-07,0.89,0,0
0.044653,0.011809,0.029277,-1.1633e-05,0.0087797,-2.0459e-05,0,0,0.053294,-0.022858,0,-0.00010639,0,0,0,0.029277,-1.1649e-05,0.0087797,-0.040008,0.012682,0.026032,5.6994e-07,0.9,0,0
0.045186,0.01182,0.029305,-1.1426e-05,0.008788,-1.8406e-05,0,0,0.053344,-0.022879,0,-9.5714e-05,0,0,0,0.029305,-1.144e-05,0.008788,-0.03596,0.012694,0.026056,5.7155e-07,0.91,0,0
0.04572,0.01183,0.029329,-1.1242e-05,0.0087955,-1.6355e-05,0,0,0.053388,-0.022897,0,-8.5047e-05,0,0,0,0.029329,-1.1252e-05,0.0087955,-0.031927,0.012705,0.026078,5.7298e-07,0.92,0,0
0.046254,0.011838,0.029351,-1.1079e-05,0.008802,-1.4306e-05,0,0,0.053428,-0.022914,0,-7.4389e-05,0,0,0,0.029351,-1.1088e-05,0.008802,-0.027905,0.012714,0.026097,5.7425e-07,0.93,0,0
0.046788,0.011845,0.02937,-1.0939e-05,0.0088077,-1.2258e-05,0,0,0.053462,-0.022928,0,-6.3741e-05,0,0,0,0.02937,-1.0945e-05,0.0088077,-0.023896,0.012722,0.026113,5.7535e-07,0.94,0,0
0.047323,0.011851,0.029386,-1.0821e-05,0.0088125,-1.0212e-05,0,0,0.053491,-0.022941,0,-5.3101e-05,0,0,0,0.029386,-1.0825e-05,0.0088125,-0.019896,0.012729,0.026127,5.7628e-07,0.95,0,0
0.047858,0.011856,0.029399,-1.0724e-05,0.0088164,-8.1673e-06,0,0,0.053514,-0.022951,0,-4.247e-05,0,0,0,0.029399,-1.0727e-05,0.0088164,-0.015906,0.012735,0.026139,5.7705e-07,0.96,0,0
0.048394,0.01186,0.029409,-1.0649e-05,0.0088195,-6.1242e-06,0,0,0.053533,-0.022958,0,-3.1846e-05,0,0,0,0.029409,-1.065e-05,0.0088195,-0.011923,0.012739,0.026148,5.7764e-07,0.97,0,0
0.048929,0.011863,0.029416,-1.0595e-05,0.0088217,-4.0822e-06,0,0,0.053546,-0.022964,0,-2.1227e-05,0,0,0,0.029416,-1.0596e-05,0.0088217,-0.0079456,0.012742,0.026154,5.7806e-07,0.98,0,0
0.049464,0.011865,0.029421,-1.0563e-05,0.008823,5.9104e-07,0,0,0.053554,-0.022967,0,3.0734e-06,0,0,0,0.029421,-1.0564e-05,0.008823,0.0011516,0.012744,0.026158,5.7832e-07,0.99,0,0
0.049732,0.011865,0.029422,-1.0552e-05,0.0088234,4.2435e-06,0,0,0.053556,-0.022968,0,2.2066e-05,0,0,0,0.029422,-1.0554e-05,0.0088234,0.0082612,0.012745,0.026159,5.784e-07,1,0,0
0.00034992,0.0003827,0.043511,0.012623,0.01684,0.011808,0,0,0.069344,-0.010964,0,0.061404,0,0,0,0.047915,0.0082197,0.01684,19.058,0.024325,0.036228,2.2901e-06,0,0.01,0
0.00069344,0.00074485,0.040875,0.0083245,0.01476,0.0095343,0,0,0.067899,-0.016732,0,0.049579,0,0,0,0.04392,0.0052789,0.01476,15.402,0.02132,0.034932,1.8524e-06,0.01,0.01,0
0.001358,0.0014237,0.036448,0.0031357,0.011875,0.0059641,0,0,0.063889,-0.022722,0,0.031013,0,0,0,0.037688,0.0018954,0.011875,9.8835,0.017153,0.031995,1.1961e-06,0.02,0.01,0
0.0019712,0.0020124,0.033026,0.0017176,0.010423,0.0039044,0,0,0.058767,-0.022634,0,0.020303,0,0,0,0.03362,0.0011236,0.010423,6.9123,0.015055,0.028989,8.466e-07,0.03,0.01,0
0.0025333,0.0025204,0.030216,0.00095157,0.0093502,0.0026729,0,0,0.05425,-0.021836,0,0.013899,0,0,0,0.030519,0.00064844,0.0093502,5.0783,0.013506,0.02661,6.3881e-07,0.04,0.01,0
0.0030562,0.0029632,0.028174,0.0005842,0.0086274,0.0018985,0,0,0.05082,-0.020912,0,0.0098723,0,0,0,0.028338,0.00041984,0.0086274,3.837,0.012462,0.024853,5.1373e-07,0.05,0.01,0
0.0035497,0.0033521,0.026677,0.00038114,0.0081175,0.0013764,0,0,0.048255,-0.020114,0,0.0071573,0,0,0,0.026769,0.00028941,0.0081175,2.9255,0.011725,0.023562,4.3408e-07,0.06,0.01,0
0.0040213,0.0036946,0.025579,0.0002623,0.0077525,0.0010003,0,0,0.04635,-0.019475,0,0.0052018,0,0,0,0.025631,0.0002112,0.0077525,2.2126,0.011198,0.022613,3.8152e-07,0.07,0.01,0
0.0044767,0.0039964,0.02478,0.00018777,0.0074904,0.00071543,0,0,0.044953,-0.018987,0,0.0037202,0,0,0,0.024808,0.00016025,0.0074904,1.6315,0.010819,0.021922,3.4618e-07,0.08,0.01,0
0.0049204,0.0042622,0.024212,0.00013846,0.0073051,0.00049137,0,0,0.043957,-0.018633,0,0.0025551,0,0,0,0.024226,0.00012467,0.0073051,1.1461,0.010552,0.021433,3.225e-07,0.09,0.01,0
0.0053559,0.0044957,0.023827,0.00010417,0.0071794,0.00031063,0,0,0.043284,-0.018396,0,0.0016153,0,0,0,0.023833,9.8125e-05,0.0071794,0.73573,0.01037,0.021105,3.0716e-07,0.1,0.01,0
0.0057861,0.0047005,0.023592,7.9214e-05,0.0071013,0.00016262,0,0,0.042875,-0.018258,0,0.00084561,0,0,0,0.023594,7.7131e-05,0.0071013,0.38837,0.010257,0.020909,2.9805e-07,0.11,0.01,0
0.0062134,0.0048796,0.023479,6.0242e-05,0.0070618,4.0663e-05,0,0,0.042685,-0.018204,0,0.00021145,0,0,0,0.02348,5.974e-05,0.0070618,0.096363,0.0102,0.020822,2.9378e-07,0.12,0.01,0
0.0066398,0.0050363,0.023467,4.5229e-05,0.0070537,-5.9554e-05,0,0,0.042675,-0.018222,0,-0.00030968,0,0,0,0.023467,4.4856e-05,0.0070537,-0.14554,0.010189,0.020823,2.9336e-07,0.13,0.01,0
0.0070669,0.0051735,0.023538,3.2935e-05,0.0070712,-0.00014096,0,0,0.042813,-0.018299,0,-0.000733,0,0,0,0.023539,3.1882e-05,0.0070712,-0.34142,0.010214,0.020896,2.9608e-07,0.14,0.01,0
0.007496,0.0052939,0.023675,2.2609e-05,0.0071091,-0.00020566,0,0,0.04307,-0.018425,0,-0.0010694,0,0,0,0.023677,2.0518e-05,0.0071091,-0.49495,0.010269,0.021028,3.0136e-07,0.15,0.01,0
0.0079283,0.0054006,0.023864,1.3816e-05,0.0071632,-0.00025528,0,0,0.043421,-0.018589,0,-0.0013275,0,0,0,0.023867,1.0639e-05,0.0071632,-0.60972,0.010347,0.021205,3.0873e-07,0.16,0.01,0
0.0083645,0.005496,0.024092,6.3204e-06,0.0072296,-0.00029123,0,0,0.043843,-0.01878,0,-0.0015144,0,0,0,0.024096,2.2076e-06,0.0072296,-0.68948,0.010443,0.021416,3.1777e-07,0.17,0.01,0
0.0088051,0.0055829,0.024349,7.0625e-10,0.0073046,-0.00031484,0,0,0.044314,-0.018992,0,-0.0016371,0,0,0,0.024353,-4.7838e-06,0.0073046,-0.73814,0.010551,0.02165,3.281e-07,0.18,0.01,0
0.0092507,0.0056638,0.024622,-5.2133e-06,0.0073852,-0.00032739,0,0,0.044817,-0.019215,0,-0.0017024,0,0,0,0.024628,-1.0362e-05,0.0073852,-0.75974,0.010667,0.021898,3.3934e-07,0.19,0.01,0
0.0097015,0.0057408,0.024904,-9.3929e-06,0.0074685,-0.0003302,0,0,0.045333,-0.019443,0,-0.0017171,0,0,0,0.02491,-1.4604e-05,0.0074685,-0.75829,0.010788,0.022152,3.5118e-07,0.2,0.01,0
0.010157,0.0058162,0.025187,-1.264e-05,0.0075522,-0.00032457,0,0,0.045849,-0.019669,0,-0.0016878,0,0,0,0.025192,-1.765e-05,0.0075522,-0.73766,0.010909,0.022405,3.6327e-07,0.21,0.01,0
0.010618,0.0058917,0.025462,-1.5095e-05,0.0076341,-0.00031173,0,0,0.046352,-0.019888,0,-0.001621,0,0,0,0.025467,-1.9696e-05,0.0076341,-0.70142,0.011027,0.022651,3.7532e-07,0.22,0.01,0
0.011084,0.0059692,0.025725,-1.692e-05,0.0077123,-0.00029287,0,0,0.046832,-0.020096,0,-0.0015229,0,0,0,0.025729,-2.0966e-05,0.0077123,-0.65274,0.01114,0.022885,3.8704e-07,0.23,0.01,0
0.011555,0.0060501,0.02597,-1.8266e-05,0.0077854,-0.00026903,0,0,0.047279,-0.02029,0,-0.001399,0,0,0,0.025973,-2.1673e-05,0.0077854,-0.59436,0.011246,0.023103,3.9819e-07,0.24,0.01,0
0.01203,0.0061355,0.026193,-1.9238e-05,0.0078521,-0.00024121,0,0,0.047686,-0.020466,0,-0.0012543,0,0,0,0.026196,-2.1976e-05,0.0078521,-0.52866,0.011342,0.023301,4.0853e-07,0.25,0.01,0
0.012509,0.0062266,0.026392,-1.9872e-05,0.0079115,-0.00021035,0,0,0.048048,-0.020622,0,-0.0010938,0,0,0,0.026394,-2.1961e-05,0.0079115,-0.45776,0.011428,0.023477,4.1786e-07,0.26,0.01,0
0.012991,0.0063239,0.026563,-2.014e-05,0.0079629,-0.00017738,0,0,0.04836,-0.020756,0,-0.0009224,0,0,0,0.026565,-2.1636e-05,0.0079629,-0.38366,0.011502,0.023628,4.2602e-07,0.27,0.01,0
0.013476,0.0064281,0.026706,-1.9967e-05,0.0080058,-0.00014327,0,0,0.04862,-0.020867,0,-0.00074503,0,0,0,0.026707,-2.0958e-05,0.0080058,-0.30831,0.011564,0.023754,4.3289e-07,0.28,0.01,0
0.013963,0.0065394,0.026819,-1.9278e-05,0.0080401,-0.00010903,0,0,0.048826,-0.020954,0,-0.00056694,0,0,0,0.02682,-1.9869e-05,0.0080401,-0.23367,0.011613,0.023854,4.3839e-07,0.29,0.01,0
0.014453,0.0066578,0.026904,-1.8026e-05,0.0080658,-7.5663e-05,0,0,0.048979,-0.021018,0,-0.00039345,0,0,0,0.026904,-1.8329e-05,0.0080658,-0.16169,0.011651,0.023928,4.425e-07,0.3,0.01,0
0.014943,0.0067832,0.026961,-1.6223e-05,0.0080833,-4.4173e-05,0,0,0.049081,-0.021059,0,-0.0002297,0,0,0,0.026961,-1.6345e-05,0.0080833,-0.094227,0.011676,0.023976,4.4524e-07,0.31,0.01,0
0.015434,0.0069151,0.026991,-1.3942e-05,0.0080932,-1.5452e-05,0,0,0.049135,-0.021079,0,-8.0353e-05,0,0,0,0.026991,-1.3976e-05,0.0080932,-0.032979,0.01169,0.024002,4.467e-07,0.32,0.01,0
0.015926,0.007053,0.026998,-1.1307e-05,0.0080961,9.7476e-06,0,0,0.049146,-0.021079,0,5.0687e-05,0,0,0,0.026998,-1.1324e-05,0.0080961,0.020648,0.011694,0.024006,4.47e-07,0.33,0.01,0
0.016417,0.0071963,0.026986,-8.4753e-06,0.0080931,3.0867e-05,0,0,0.04912,-0.021064,0,0.00016051,0,0,0,0.026986,-8.5209e-06,0.0080931,0.065595,0.01169,0.023992,4.463e-07,0.34,0.01,0
0.016908,0.0073441,0.026956,-5.6125e-06,0.0080852,4.7558e-05,0,0,0.049065,-0.021036,0,0.0002473,0,0,0,0.026956,-5.7094e-06,0.0080852,0.1012,0.011679,0.023964,4.4479e-07,0.35,0.01,0
0.017398,0.0074955,0.026914,-2.876e-06,0.0080734,5.9683e-05,0,0,0.048986,-0.020998,0,0.00031035,0,0,0,0.026914,-3.0262e-06,0.0080734,0.12718,0.011662,0.023924,4.4265e-07,0.36,0.01,0
0.017888,0.0076497,0.026863,-4.0083e-07,0.0080589,6.7305e-05,0,0,0.048891,-0.020954,0,0.00034999,0,0,0,0.026863,-5.9189e-07,0.0080589,0.14366,0.011641,0.023877,4.401e-07,0.37,0.01,0
0.018376,0.0078057,0.026807,1.7078e-06,0.0080427,7.0657e-05,0,0,0.048788,-0.020907,0,0.00036742,0,0,0,0.026808,1.4964e-06,0.0080427,0.15109,0.011617,0.023826,4.3732e-07,0.38,0.01,0
0.018864,0.0079625,0.02675,3.3772e-06,0.008026,7.0108e-05,0,0,0.048682,-0.020859,0,0.00036456,0,0,0,0.02675,3.1682e-06,0.008026,0.15019,0.011593,0.023774,4.3449e-07,0.39,0.01,0
0.01935,0.0081194,0.026694,4.5669e-06,0.0080097,6.6131e-05,0,0,0.04858,-0.020813,0,0.00034388,0,0,0,0.026695,4.3801e-06,0.0080097,0.14192,0.01157,0.023723,4.3176e-07,0.4,0.01,0
0.019835,0.0082754,0.026643,5.2656e-06,0.0079945,5.9264e-05,0,0,0.048486,-0.020772,0,0.00030817,0,0,0,0.026643,5.1148e-06,0.0079945,0.12739,0.011548,0.023677,4.2927e-07,0.41,0.01,0
0.02032,0.0084299,0.026599,5.4877e-06,0.0079812,5.0077e-05,0,0,0.048405,-0.020737,0,0.0002604,0,0,0,0.026599,5.3793e-06,0.0079812,0.1078,0.011528,0.023637,4.2712e-07,0.42,0.01,0
0.020803,0.0085822,0.026563,5.2691e-06,0.0079704,3.9146e-05,0,0,0.04834,-0.020709,0,0.00020356,0,0,0,0.026563,5.2019e-06,0.0079704,0.084364,0.011513,0.023605,4.2539e-07,0.43,0.01,0
0.021286,0.0087316,0.026536,4.662e-06,0.0079623,2.7021e-05,0,0,0.048293,-0.02069,0,0.00014051,0,0,0,0.026536,4.6286e-06,0.0079623,0.058287,0.011501,0.023582,4.2415e-07,0.44,0.01,0
0.021769,0.0088776,0.026521,3.7306e-06,0.0079574,1.4211e-05,0,0,0.048265,-0.02068,0,7.3898e-05,0,0,0,0.026521,3.7189e-06,0.0079574,0.030685,0.011494,0.023569,4.2343e-07,0.45,0.01,0
0.022252,0.00902,0.026517,2.5456e-06,0.0079558,1.169e-06,0,0,0.048258,-0.020678,0,6.0786e-06,0,0,0,0.026517,2.541e-06,0.0079558,0.0025623,0.011492,0.023566,4.2324e-07,0.46,0.01,0
0.022734,0.0091583,0.026523,1.1794e-06,0.0079574,-1.1721e-05,0,0,0.048272,-0.020686,0,-6.0948e-05,0,0,0,0.026523,1.1671e-06,0.0079574,-0.025218,0.011494,0.023574,4.236e-07,0.47,0.01,0
0.023217,0.0092922,0.026541,-2.9781e-07,0.0079623,-2.4143e-05,0,0,0.048305,-0.020703,0,-0.00012555,0,0,0,0.026541,-3.3155e-07,0.0079623,-0.051947,0.011501,0.023591,4.2448e-07,0.48,0.01,0
0.0237,0.0094217,0.026569,-1.822e-06,0.0079703,-3.5856e-05,0,0,0.048358,-0.020727,0,-0.00018645,0,0,0,0.026569,-1.8885e-06,0.0079703,-0.077074,0.011513,0.023617,4.2587e-07,0.49,0.01,0
0.024184,0.0095465,0.026607,-3.3374e-06,0.0079812,-4.6681e-05,0,0,0.048428,-0.02076,0,-0.00024274,0,0,0,0.026607,-3.4451e-06,0.0079812,-0.1002,0.011528,0.023652,4.2773e-07,0.5,0.01,0
0.024669,0.0096667,0.026654,-4.7981e-06,0.0079949,-5.6503e-05,0,0,0.048515,-0.020799,0,-0.00029381,0,0,0,0.026654,-4.9521e-06,0.0079949,-0.12107,0.011548,0.023695,4.3003e-07,0.51,0.01,0
0.025155,0.0097821,0.026709,-6.1686e-06,0.008011,-6.5257e-05,0,0,0.048616,-0.020845,0,-0.00033934,0,0,0,0.02671,-6.3709e-06,0.008011,-0.13954,0.011571,0.023745,4.3273e-07,0.52,0.01,0
0.025641,0.0098929,0.026772,-7.4234e-06,0.0080293,-7.2923e-05,0,0,0.04873,-0.020895,0,-0.0003792,0,0,0,0.026772,-7.6734e-06,0.0080293,-0.15557,0.011598,0.023802,4.3579e-07,0.53,0.01,0
0.026129,0.009999,0.02684,-8.5462e-06,0.0080495,-7.9514e-05,0,0,0.048856,-0.020951,0,-0.00041347,0,0,0,0.02684,-8.8411e-06,0.0080495,-0.1692,0.011627,0.023863,4.3916e-07,0.54,0.01,0
0.026618,0.010101,0.026914,-9.5286e-06,0.0080713,-8.507e-05,0,0,0.048991,-0.02101,0,-0.00044237,0,0,0,0.026914,-9.8641e-06,0.0080713,-0.18053,0.011659,0.02393,4.4281e-07,0.55,0.01,0
0.027109,0.010198,0.026992,-1.0369e-05,0.0080945,-8.9649e-05,0,0,0.049134,-0.021073,0,-0.00046617,0,0,0,0.026993,-1.074e-05,0.0080945,-0.1897,0.011692,0.024,4.467e-07,0.56,0.01,0
0.027601,0.01029,0.027074,-1.1071e-05,0.0081189,-9.3319e-05,0,0,0.049283,-0.021138,0,-0.00048526,0,0,0,0.027074,-1.147e-05,0.0081189,-0.19688,0.011727,0.024073,4.5079e-07,0.57,0.01,0
0.028095,0.010379,0.027159,-1.1641e-05,0.0081442,-9.6158e-05,0,0,0.049438,-0.021205,0,-0.00050002,0,0,0,0.027159,-1.2064e-05,0.0081442,-0.20224,0.011764,0.024149,4.5505e-07,0.58,0.01,0
0.02859,0.010463,0.027246,-1.209e-05,0.0081701,-9.8242e-05,0,0,0.049597,-0.021274,0,-0.00051086,0,0,0,0.027246,-1.2529e-05,0.0081701,-0.20598,0.011801,0.024227,4.5944e-07,0.59,0.01,0
0.029087,0.010544,0.027334,-1.2429e-05,0.0081965,-9.9649e-05,0,0,0.049758,-0.021343,0,-0.00051817,0,0,0,0.027335,-1.2879e-05,0.0081965,-0.20827,0.011839,0.024306,4.6393e-07,0.6,0.01,0
0.029585,0.01062,0.027424,-1.2669e-05,0.0082233,-0.00010045,0,0,0.049921,-0.021414,0,-0.00052235,0,0,0,0.027424,-1.3126e-05,0.0082233,-0.20928,0.011878,0.024386,4.685e-07,0.61,0.01,0
0.030085,0.010693,0.027514,-1.2824e-05,0.0082502,-0.00010072,0,0,0.050085,-0.021484,0,-0.00052376,0,0,0,0.027514,-1.3281e-05,0.0082502,-0.20917,0.011917,0.024466,4.7313e-07,0.62,0.01,0
0.030587,0.010762,0.027604,-1.2905e-05,0.0082772,-0.00010052,0,0,0.050249,-0.021554,0,-0.00052272,0,0,0,0.027604,-1.3359e-05,0.0082772,-0.20809,0.011956,0.024546,4.7778e-07,0.63,0.01,0
0.03109,0.010828,0.027693,-1.2923e-05,0.0083041,-9.9909e-05,0,0,0.050412,-0.021624,0,-0.00051953,0,0,0,0.027694,-1.337e-05,0.0083041,-0.20617,0.011995,0.024625,4.8245e-07,0.64,0.01,0
0.031595,0.010891,0.027782,-1.2887e-05,0.0083308,-9.8936e-05,0,0,0.050573,-0.021693,0,-0.00051447,0,0,0,0.027783,-1.3324e-05,0.0083308,-0.20353,0.012033,0.024704,4.871e-07,0.65,0.01,0
0.032101,0.01095,0.02787,-1.2808e-05,0.0083572,-9.7648e-05,0,0,0.050733,-0.021762,0,-0.00050777,0,0,0,0.02787,-1.3232e-05,0.0083572,-0.20026,0.012071,0.024782,4.9173e-07,0.66,0.01,0
0.03261,0.011007,0.027957,-1.2693e-05,0.0083832,-9.6087e-05,0,0,0.050891,-0.021829,0,-0.00049965,0,0,0,0.027957,-1.3103e-05,0.0083832,-0.19646,0.012109,0.024859,4.9633e-07,0.67,0.01,0
0.033119,0.01106,0.028042,-1.2549e-05,0.0084088,-9.4288e-05,0,0,0.051046,-0.021895,0,-0.0004903,0,0,0,0.028042,-1.2942e-05,0.0084088,-0.19221,0.012146,0.024935,5.0087e-07,0.68,0.01,0
0.033631,0.011111,0.028125,-1.2382e-05,0.0084339,-9.2282e-05,0,0,0.051198,-0.02196,0,-0.00047987,0,0,0,0.028126,-1.2758e-05,0.0084339,-0.18758,0.012182,0.025009,5.0535e-07,0.69,0.01,0
0.034143,0.011159,0.028207,-1.2197e-05,0.0084584,-9.0097e-05,0,0,0.051346,-0.022024,0,-0.00046851,0,0,0,0.028207,-1.2555e-05,0.0084584,-0.18263,0.012218,0.025081,5.0975e-07,0.7,0.01,0
0.034657,0.011204,0.028286,-1.1999e-05,0.0084823,-8.7758e-05,0,0,0.051491,-0.022085,0,-0.00045634,0,0,0,0.028287,-1.2338e-05,0.0084823,-0.1774,0.012252,0.025152,5.1407e-07,0.71,0.01,0
0.035173,0.011247,0.028364,-1.1792e-05,0.0085056,-8.5285e-05,0,0,0.051631,-0.022145,0,-0.00044348,0,0,0,0.028364,-1.2111e-05,0.0085056,-0.17194,0.012286,0.02522,5.1829e-07,0.72,0.01,0
0.03569,0.011288,0.028439,-1.1578e-05,0.0085282,-8.2697e-05,0,0,0.051768,-0.022204,0,-0.00043003,0,0,0,0.028439,-1.1877e-05,0.0085282,-0.1663,0.012319,0.025287,5.2242e-07,0.73,0.01,0
0.036208,0.011326,0.028512,-1.1361e-05,0.0085501,-8.0011e-05,0,0,0.0519,-0.02226,0,-0.00041606,0,0,0,0.028512,-1.164e-05,0.0085501,-0.16049,0.01235,0.025351,5.2643e-07,0.74,0.01,0
0.036728,0.011362,0.028582,-1.1141e-05,0.0085713,-7.724e-05,0,0,0.052028,-0.022314,0,-0.00040165,0,0,0,0.028583,-1.1401e-05,0.0085713,-0.15456,0.012381,0.025414,5.3034e-07,0.75,0.01,0
0.037249,0.011396,0.02865,-1.0923e-05,0.0085918,-7.4397e-05,0,0,0.052152,-0.022367,0,-0.00038686,0,0,0,0.02865,-1.1163e-05,0.0085918,-0.14853,0.01241,0.025474,5.3412e-07,0.76,0.01,0
0.037771,0.011428,0.028715,-1.0706e-05,0.0086114,-7.1493e-05,0,0,0.05227,-0.022418,0,-0.00037177,0,0,0,0.028716,-1.0928e-05,0.0086114,-0.14242,0.012439,0.025532,5.3777e-07,0.77,0.01,0
0.038294,0.011459,0.028778,-1.0493e-05,0.0086303,-6.8539e-05,0,0,0.052384,-0.022466,0,-0.0003564,0,0,0,0.028778,-1.0696e-05,0.0086303,-0.13624,0.012466,0.025587,5.4129e-07,0.78,0.01,0
0.038819,0.011487,0.028838,-1.0284e-05,0.0086484,-6.5541e-05,0,0,0.052494,-0.022513,0,-0.00034081,0,0,0,0.028838,-1.047e-05,0.0086484,-0.13002,0.012492,0.025641,5.4468e-07,0.79,0.01,0
0.039344,0.011514,0.028896,-1.0081e-05,0.0086656,-6.2509e-05,0,0,0.052598,-0.022557,0,-0.00032505,0,0,0,0.028896,-1.025e-05,0.0086656,-0.12376,0.012517,0.025691,5.4793e-07,0.8,0.01,0
0.039871,0.011538,0.02895,-9.8845e-06,0.0086821,-5.9448e-05,0,0,0.052697,-0.022599,0,-0.00030913,0,0,0,0.02895,-1.0037e-05,0.0086821,-0.11749,0.012541,0.02574,5.5104e-07,0.81,0.01,0
0.040398,0.011562,0.029002,-9.6951e-06,0.0086977,-5.6364e-05,0,0,0.052791,-0.022639,0,-0.00029309,0,0,0,0.029002,-9.8317e-06,0.0086977,-0.1112,0.012563,0.025786,5.54e-07,0.82,0.01,0
0.040927,0.011583,0.029051,-9.5135e-06,0.0087125,-5.3261e-05,0,0,0.052881,-0.022677,0,-0.00027696,0,0,0,0.029051,-9.6353e-06,0.0087125,-0.1049,0.012585,0.025829,5.5681e-07,0.83,0.01,0
0.041456,0.011603,0.029098,-9.3403e-06,0.0087265,-5.0146e-05,0,0,0.052965,-0.022713,0,-0.00026076,0,0,0,0.029098,-9.4481e-06,0.0087265,-0.098613,0.012605,0.02587,5.5948e-07,0.84,0.01,0
0.041986,0.011622,0.029141,-9.1759e-06,0.0087396,-4.7019e-05,0,0,0.053044,-0.022747,0,-0.0002445,0,0,0,0.029141,-9.2706e-06,0.0087396,-0.092331,0.012624,0.025909,5.6198e-07,0.85,0.01,0
0.042517,0.011639,0.029182,-9.0208e-06,0.0087518,-4.3886e-05,0,0,0.053118,-0.022778,0,-0.00022821,0,0,0,0.029182,-9.1032e-06,0.0087518,-0.08606,0.012642,0.025945,5.6434e-07,0.86,0.01,0
0.043048,0.011655,0.02922,-8.8753e-06,0.0087633,-4.0748e-05,0,0,0.053187,-0.022808,0,-0.00021189,0,0,0,0.02922,-8.9463e-06,0.0087633,-0.079805,0.012658,0.025978,5.6654e-07,0.87,0.01,0
0.04358,0.01167,0.029255,-8.7397e-06,0.0087738,-3.7607e-05,0,0,0.053251,-0.022835,0,-0.00019555,0,0,0,0.029255,-8.8002e-06,0.0087738,-0.073567,0.012673,0.026009,5.6858e-07,0.88,0.01,0
0.044113,0.011683,0.029287,-8.6143e-06,0.0087836,-3.4465e-05,0,0,0.053309,-0.02286,0,-0.00017922,0,0,0,0.029287,-8.6651e-06,0.0087836,-0.067348,0.012687,0.026038,5.7046e-07,0.89,0.01,0
0.044647,0.011695,0.029317,-8.4993e-06,0.0087924,-3.1323e-05,0,0,0.053363,-0.022882,0,-0.00016288,0,0,0,0.029317,-8.5412e-06,0.0087924,-0.061148,0.0127,0.026064,5.7218e-07,0.9,0.01,0
0.045181,0.011706,0.029343,-8.3948e-06,0.0088005,-2.8182e-05,0,0,0.053411,-0.022903,0,-0.00014654,0,0,0,0.029343,-8.4287e-06,0.0088005,-0.054968,0.012712,0.026088,5.7374e-07,0.91,0.01,0
0.045715,0.011715,0.029367,-8.301e-06,0.0088077,-2.5042e-05,0,0,0.053455,-0.022922,0,-0.00013022,0,0,0,0.029367,-8.3278e-06,0.0088077,-0.048806,0.012722,0.026109,5.7514e-07,0.92,0.01,0
0.04625,0.011723,0.029388,-8.218e-06,0.008814,-2.1905e-05,0,0,0.053493,-0.022938,0,-0.00011391,0,0,0,0.029388,-8.2386e-06,0.008814,-0.042662,0.012731,0.026127,5.7637e-07,0.93,0.01,0
0.046785,0.011731,0.029406,-8.1459e-06,0.0088195,-1.8771e-05,0,0,0.053526,-0.022952,0,-9.7607e-05,0,0,0,0.029407,-8.1611e-06,0.0088195,-0.036535,0.012739,0.026144,5.7744e-07,0.94,0.01,0
0.04732,0.011737,0.029422,-8.0848e-06,0.0088241,-1.5638e-05,0,0,0.053554,-0.022964,0,-8.1318e-05,0,0,0,0.029422,-8.0954e-06,0.0088241,-0.030422,0.012746,0.026157,5.7835e-07,0.95,0.01,0
0.047856,0.011742,0.029435,-8.0347e-06,0.0088279,-1.2508e-05,0,0,0.053577,-0.022974,0,-6.5039e-05,0,0,0,0.029435,-8.0416e-06,0.0088279,-0.024322,0.012751,0.026168,5.791e-07,0.96,0.01,0
0.048392,0.011745,0.029444,-7.9958e-06,0.0088309,-9.3789e-06,0,0,0.053595,-0.022981,0,-4.877e-05,0,0,0,0.029444,-7.9997e-06,0.0088309,-0.018232,0.012756,0.026177,5.7967e-07,0.97,0.01,0
0.048928,0.011748,0.029451,-7.9679e-06,0.008833,-6.2518e-06,0,0,0.053608,-0.022987,0,-3.2509e-05,0,0,0,0.029451,-7.9698e-06,0.008833,-0.01215,0.012759,0.026183,5.8009e-07,0.98,0.01,0
0.049464,0.01175,0.029456,-7.9512e-06,0.0088343,-5.1992e-07,0,0,0.053615,-0.02299,0,-2.7036e-06,0,0,0,0.029456,-7.9527e-06,0.0088343,-0.0010069,0.012761,0.026187,5.8033e-07,0.99,0.01,0
0.049732,0.01175,0.029457,-7.9456e-06,0.0088347,3.6487e-06,0,0,0.053618,-0.022991,0,1.8973e-05,0,0,0,0.029457,-7.9476e-06,0.0088347,0.0070973,0.012761,0.026188,5.8042e-07,1,0.01,0
0.00026405,0.0003021,0.034708,0.011632,0.013902,0.010661,0,0,0.054096,-0.0059024,0,0.055435,0,0,0,0.039016,0.0073235,0.013902,21.593,0.020081,0.028996,1.0544e-06,0,0.02,0
0.00054096,0.00061184,0.034282,0.0089946,0.012983,0.0097043,0,0,0.055377,-0.010369,0,0.050462,0,0,0,0.037786,0.0054903,0.012983,19.064,0.018753,0.029305,1.0216e-06,0.01,0.02,0
0.0011075,0.0012241,0.033501,0.0050868,0.011576,0.0077694,0,0,0.057005,-0.016873,0,0.040401,0,0,0,0.035662,0.0029265,0.011576,14.537,0.016722,0.029389,9.4057e-07,0.02,0.02,0
0.0016811,0.0017974,0.032365,0.003134,0.01065,0.005912,0,0,0.05646,-0.019541,0,0.030743,0,0,0,0.03364,0.0018592,0.01065,11.041,0.015383,0.028426,8.1713e-07,0.03,0.02,0
0.0022367,0.0023067,0.03075,0.0020578,0.0098423,0.0043838,0,0,0.05436,-0.02024,0,0.022796,0,0,0,0.031484,0.0013239,0.0098423,8.4607,0.014217,0.026932,6.7928e-07,0.04,0.02,0
0.0027683,0.0027554,0.029196,0.0014275,0.0091872,0.0032623,0,0,0.052024,-0.020175,0,0.016964,0,0,0,0.029623,0.0010005,0.0091872,6.5608,0.01327,0.025534,5.7084e-07,0.05,0.02,0
0.0032772,0.0031505,0.02789,0.0010422,0.0086796,0.0024382,0,0,0.049946,-0.019857,0,0.012679,0,0,0,0.02814,0.00079195,0.0086796,5.0991,0.012537,0.024381,4.9218e-07,0.06,0.02,0
0.0037672,0.0034985,0.026842,0.00079407,0.0082909,0.0018154,0,0,0.048234,-0.019492,0,0.0094402,0,0,0,0.026987,0.00064898,0.0082909,3.9272,0.011976,0.02347,4.3595e-07,0.07,0.02,0
0.0042419,0.0038048,0.026025,0.00062568,0.0079951,0.0013303,0,0,0.046877,-0.019161,0,0.0069173,0,0,0,0.026106,0.00054427,0.0079951,2.9583,0.011549,0.02277,3.9585e-07,0.08,0.02,0
0.0047047,0.0040739,0.025401,0.00050527,0.007772,0.00094235,0,0,0.045836,-0.018893,0,0.0049002,0,0,0,0.025444,0.00046236,0.007772,2.1413,0.011226,0.022247,3.6744e-07,0.09,0.02,0
0.0051586,0.0043098,0.02494,0.00041465,0.0076065,0.00062626,0,0,0.045068,-0.018699,0,0.0032566,0,0,0,0.024961,0.00039435,0.0076065,1.4458,0.010987,0.021871,3.4767e-07,0.1,0.02,0
0.0056061,0.004516,0.024615,0.00034305,0.0074875,0.00036565,0,0,0.044532,-0.018575,0,0.0019014,0,0,0,0.024623,0.00033509,0.0074875,0.85282,0.010815,0.021618,3.3446e-07,0.11,0.02,0
0.0060492,0.0046958,0.024404,0.00028392,0.0074064,0.0001498,0,0,0.044194,-0.018518,0,0.00077896,0,0,0,0.024406,0.00028166,0.0074064,0.35043,0.010698,0.021468,3.2634e-07,0.12,0.02,0
0.0064899,0.0048524,0.024288,0.00023323,0.0073564,-2.8466e-05,0,0,0.044022,-0.01852,0,-0.00014802,0,0,0,0.024289,0.00023249,0.0073564,-0.069763,0.010626,0.021403,3.2226e-07,0.13,0.02,0
0.0069297,0.004989,0.024251,0.0001885,0.0073319,-0.00017415,0,0,0.04399,-0.018573,0,-0.00090556,0,0,0,0.024253,0.00018683,0.0073319,-0.41426,0.010591,0.021407,3.2142e-07,0.14,0.02,0
0.0073698,0.0051084,0.02428,0.00014829,0.0073284,-0.0002909,0,0,0.044073,-0.018668,0,-0.0015127,0,0,0,0.024283,0.00014445,0.0073284,-0.6888,0.010585,0.021468,3.2319e-07,0.15,0.02,0
0.0078112,0.0052136,0.024361,0.00011183,0.0073417,-0.00038163,0,0,0.044249,-0.018798,0,-0.0019845,0,0,0,0.024367,0.00010544,0.0073417,-0.89902,0.010605,0.021574,3.2706e-07,0.16,0.02,0
0.0082547,0.0053073,0.024483,7.8787e-05,0.0073686,-0.00044881,0,0,0.044498,-0.018953,0,-0.0023338,0,0,0,0.024492,7.0043e-05,0.0073686,-1.0507,0.010643,0.021713,3.326e-07,0.17,0.02,0
0.0087011,0.0053923,0.024637,4.9066e-05,0.0074058,-0.00049477,0,0,0.044801,-0.019128,0,-0.0025728,0,0,0,0.024648,3.8499e-05,0.0074058,-1.1501,0.010697,0.021877,3.3943e-07,0.18,0.02,0
0.0091508,0.0054711,0.024813,2.269e-05,0.0074508,-0.00052178,0,0,0.045143,-0.019313,0,-0.0027133,0,0,0,0.024825,1.099e-05,0.0074508,-1.2036,0.010762,0.022056,3.4721e-07,0.19,0.02,0
0.009604,0.0055461,0.025005,-3.3673e-07,0.0075013,-0.00053213,0,0,0.045508,-0.019504,0,-0.0027671,0,0,0,0.025017,-1.2455e-05,0.0075013,-1.2176,0.010835,0.022245,3.5565e-07,0.2,0.02,0
0.010061,0.0056194,0.025203,-2.0101e-05,0.007555,-0.00052802,0,0,0.045886,-0.019695,0,-0.0027457,0,0,0,0.025215,-3.1986e-05,0.007555,-1.1985,0.010913,0.022437,3.6448e-07,0.21,0.02,0
0.010522,0.0056929,0.025404,-3.6798e-05,0.0076102,-0.0005116,0,0,0.046264,-0.019882,0,-0.0026603,0,0,0,0.025415,-4.7916e-05,0.0076102,-1.1519,0.010992,0.022628,3.7346e-07,0.22,0.02,0
0.010986,0.0057685,0.025601,-5.0703e-05,0.0076652,-0.00048481,0,0,0.046634,-0.020061,0,-0.002521,0,0,0,0.025611,-6.0658e-05,0.0076652,-1.0832,0.011072,0.022812,3.8238e-07,0.23,0.02,0
0.011454,0.0058475,0.025791,-6.2089e-05,0.0077188,-0.00044942,0,0,0.046989,-0.02023,0,-0.002337,0,0,0,0.0258,-7.063e-05,0.0077188,-0.9968,0.011149,0.022988,3.9104e-07,0.24,0.02,0
0.011926,0.0059313,0.02597,-7.1152e-05,0.0077697,-0.00040704,0,0,0.047321,-0.020386,0,-0.0021166,0,0,0,0.025977,-7.8158e-05,0.0077697,-0.8967,0.011223,0.023151,3.9928e-07,0.25,0.02,0
0.012401,0.0060209,0.026135,-7.7958e-05,0.0078171,-0.00035919,0,0,0.047626,-0.020527,0,-0.0018678,0,0,0,0.02614,-8.3426e-05,0.0078171,-0.78641,0.011291,0.023301,4.0693e-07,0.26,0.02,0
0.012879,0.0061169,0.026283,-8.2442e-05,0.0078601,-0.00030739,0,0,0.047899,-0.020651,0,-0.0015984,0,0,0,0.026287,-8.6471e-05,0.0078601,-0.66931,0.011354,0.023433,4.1386e-07,0.27,0.02,0
0.013359,0.00622,0.026413,-8.4473e-05,0.0078985,-0.00025321,0,0,0.048137,-0.020756,0,-0.0013167,0,0,0,0.026415,-8.7239e-05,0.0078985,-0.54873,0.011409,0.023548,4.1997e-07,0.28,0.02,0
0.013841,0.0063305,0.026523,-8.3933e-05,0.0079317,-0.00019831,0,0,0.048337,-0.020841,0,-0.0010312,0,0,0,0.026525,-8.5669e-05,0.0079317,-0.42809,0.011457,0.023644,4.2517e-07,0.29,0.02,0
0.014326,0.0064482,0.026613,-8.081e-05,0.0079597,-0.00014442,0,0,0.048499,-0.020905,0,-0.00075097,0,0,0,0.026614,-8.1772e-05,0.0079597,-0.31079,0.011497,0.023721,4.2941e-07,0.3,0.02,0
0.014811,0.0065731,0.026684,-7.5246e-05,0.0079826,-9.3193e-05,0,0,0.048623,-0.02095,0,-0.0004846,0,0,0,0.026684,-7.5691e-05,0.0079826,-0.20012,0.01153,0.023778,4.3269e-07,0.31,0.02,0
0.015298,0.0067048,0.026736,-6.7545e-05,0.0080004,-4.6162e-05,0,0,0.048711,-0.020977,0,-0.00024004,0,0,0,0.026736,-6.7699e-05,0.0080004,-0.099046,0.011556,0.023817,4.3505e-07,0.32,0.02,0
0.015785,0.0068427,0.02677,-5.8144e-05,0.0080135,-4.6112e-06,0,0,0.048766,-0.020986,0,-2.3979e-05,0,0,0,0.02677,-5.8189e-05,0.0080135,-0.010039,0.011575,0.02384,4.3655e-07,0.33,0.02,0
0.016273,0.0069861,0.026789,-4.7561e-05,0.0080224,3.0486e-05,0,0,0.048793,-0.020982,0,0.00015853,0,0,0,0.026789,-4.762e-05,0.0080224,0.065026,0.011588,0.023849,4.3729e-07,0.34,0.02,0
0.016761,0.0071341,0.026795,-3.634e-05,0.0080276,5.8504e-05,0,0,0.048795,-0.020966,0,0.00030422,0,0,0,0.026795,-3.6482e-05,0.0080276,0.12495,0.011595,0.023845,4.3738e-07,0.35,0.02,0
0.017249,0.0072858,0.026791,-2.5005e-05,0.0080297,7.9164e-05,0,0,0.048778,-0.020942,0,0.00041166,0,0,0,0.026791,-2.5249e-05,0.0080297,0.1692,0.011598,0.023832,4.3697e-07,0.36,0.02,0
0.017737,0.0074404,0.026779,-1.4023e-05,0.0080294,9.2519e-05,0,0,0.048748,-0.020913,0,0.0004811,0,0,0,0.026779,-1.4353e-05,0.0080294,0.1979,0.011598,0.023813,4.362e-07,0.37,0.02,0
0.018224,0.0075967,0.026762,-3.787e-06,0.0080274,9.8901e-05,0,0,0.048709,-0.020881,0,0.00051429,0,0,0,0.026762,-4.1632e-06,0.0080274,0.21174,0.011595,0.02379,4.352e-07,0.38,0.02,0
0.018711,0.007754,0.026743,5.4016e-06,0.0080244,9.8877e-05,0,0,0.048667,-0.020849,0,0.00051416,0,0,0,0.026743,5.0247e-06,0.0080244,0.21189,0.011591,0.023766,4.341e-07,0.39,0.02,0
0.019198,0.0079112,0.026724,1.333e-05,0.0080211,9.3185e-05,0,0,0.048626,-0.02082,0,0.00048456,0,0,0,0.026724,1.2994e-05,0.0080211,0.19986,0.011586,0.023742,4.3303e-07,0.4,0.02,0
0.019684,0.0080676,0.026707,1.9871e-05,0.0080179,8.2681e-05,0,0,0.048591,-0.020795,0,0.00042994,0,0,0,0.026707,1.9604e-05,0.0080179,0.17747,0.011581,0.023722,4.3209e-07,0.41,0.02,0
0.020169,0.0082224,0.026694,2.4978e-05,0.0080156,6.8284e-05,0,0,0.048563,-0.020776,0,0.00035508,0,0,0,0.026694,2.4794e-05,0.0080156,0.14666,0.011578,0.023706,4.3137e-07,0.42,0.02,0
0.020655,0.0083748,0.026686,2.8673e-05,0.0080144,5.0924e-05,0,0,0.048546,-0.020763,0,0.00026481,0,0,0,0.026686,2.8567e-05,0.0080144,0.10943,0.011576,0.023696,4.3094e-07,0.43,0.02,0
0.02114,0.0085243,0.026685,3.1035e-05,0.0080149,3.1503e-05,0,0,0.048543,-0.020758,0,0.00016381,0,0,0,0.026685,3.0989e-05,0.0080149,0.06773,0.011577,0.023694,4.3086e-07,0.44,0.02,0
0.021626,0.0086704,0.026691,3.2191e-05,0.0080171,1.0858e-05,0,0,0.048553,-0.020761,0,5.6459e-05,0,0,0,0.026691,3.2175e-05,0.0080171,0.023398,0.01158,0.023698,4.3115e-07,0.45,0.02,0
0.022111,0.0088128,0.026706,3.2295e-05,0.0080214,-1.0263e-05,0,0,0.048579,-0.020772,0,-5.3368e-05,0,0,0,0.026706,3.2276e-05,0.0080214,-0.021918,0.011586,0.023711,4.3183e-07,0.46,0.02,0
0.022597,0.0089509,0.026728,3.1522e-05,0.0080277,-3.1218e-05,0,0,0.04862,-0.02079,0,-0.00016233,0,0,0,0.026728,3.1464e-05,0.0080277,-0.066801,0.011596,0.023731,4.3293e-07,0.47,0.02,0
0.023084,0.0090847,0.026758,3.005e-05,0.0080363,-5.148e-05,0,0,0.048675,-0.020816,0,-0.0002677,0,0,0,0.026758,2.9921e-05,0.0080363,-0.11008,0.011608,0.023759,4.3442e-07,0.48,0.02,0
0.023571,0.0092138,0.026795,2.8052e-05,0.0080469,-7.0637e-05,0,0,0.048745,-0.020849,0,-0.00036731,0,0,0,0.026795,2.7827e-05,0.0080469,-0.15085,0.011623,0.023794,4.3629e-07,0.49,0.02,0
0.024059,0.0093383,0.02684,2.5688e-05,0.0080596,-8.8389e-05,0,0,0.048828,-0.020888,0,-0.00045962,0,0,0,0.02684,2.5348e-05,0.0080596,-0.18845,0.011642,0.023836,4.3854e-07,0.5,0.02,0
0.024547,0.0094581,0.026891,2.31e-05,0.0080743,-0.00010453,0,0,0.048924,-0.020933,0,-0.00054356,0,0,0,0.026892,2.2634e-05,0.0080743,-0.22242,0.011663,0.023884,4.4112e-07,0.51,0.02,0
0.025037,0.009573,0.026949,2.0407e-05,0.0080907,-0.00011895,0,0,0.049031,-0.020983,0,-0.00061853,0,0,0,0.026949,1.9812e-05,0.0080907,-0.25254,0.011687,0.023937,4.4401e-07,0.52,0.02,0
0.025528,0.0096833,0.027011,1.7706e-05,0.0081087,-0.0001316,0,0,0.049147,-0.021037,0,-0.0006843,0,0,0,0.027012,1.6984e-05,0.0081087,-0.27873,0.011713,0.023995,4.4718e-07,0.53,0.02,0
0.02602,0.0097888,0.027079,1.5071e-05,0.0081282,-0.00014249,0,0,0.049272,-0.021094,0,-0.00074094,0,0,0,0.02708,1.4231e-05,0.0081282,-0.30103,0.011741,0.024058,4.506e-07,0.54,0.02,0
0.026513,0.0098898,0.027151,1.2558e-05,0.0081489,-0.00015168,0,0,0.049404,-0.021155,0,-0.00078874,0,0,0,0.027152,1.1612e-05,0.0081489,-0.31958,0.011771,0.024124,4.5423e-07,0.55,0.02,0
0.027008,0.0099863,0.027226,1.0204e-05,0.0081707,-0.00015926,0,0,0.049543,-0.021217,0,-0.00082816,0,0,0,0.027227,9.1658e-06,0.0081707,-0.33461,0.011802,0.024192,4.5806e-07,0.56,0.02,0
0.027504,0.010078,0.027303,8.0298e-06,0.0081934,-0.00016534,0,0,0.049686,-0.021282,0,-0.00085976,0,0,0,0.027304,6.9163e-06,0.0081934,-0.34638,0.011835,0.024263,4.6204e-07,0.57,0.02,0
0.028002,0.010166,0.027383,6.0474e-06,0.0082168,-0.00017003,0,0,0.049833,-0.021348,0,-0.00088418,0,0,0,0.027384,4.8746e-06,0.0082168,-0.35517,0.011869,0.024336,4.6615e-07,0.58,0.02,0
0.028501,0.01025,0.027465,4.2577e-06,0.0082407,-0.00017347,0,0,0.049983,-0.021415,0,-0.00090206,0,0,0,0.027466,3.0416e-06,0.0082407,-0.36127,0.011903,0.02441,4.7036e-07,0.59,0.02,0
0.029002,0.01033,0.027548,2.6555e-06,0.0082651,-0.00017578,0,0,0.050134,-0.021482,0,-0.00091404,0,0,0,0.027549,1.4113e-06,0.0082651,-0.36496,0.011938,0.024485,4.7465e-07,0.6,0.02,0
0.029504,0.010405,0.027631,1.2309e-06,0.0082897,-0.00017707,0,0,0.050287,-0.02155,0,-0.00092074,0,0,0,0.027632,-2.7349e-08,0.0082897,-0.36653,0.011974,0.02456,4.79e-07,0.61,0.02,0
0.030007,0.010478,0.027715,-2.8785e-08,0.0083144,-0.00017745,0,0,0.050441,-0.021618,0,-0.00092277,0,0,0,0.027716,-1.2885e-06,0.0083144,-0.36623,0.01201,0.024636,4.8339e-07,0.62,0.02,0
0.030512,0.010546,0.027798,-1.1377e-06,0.0083392,-0.00017705,0,0,0.050594,-0.021685,0,-0.00092064,0,0,0,0.0278,-2.3877e-06,0.0083392,-0.36429,0.012045,0.024711,4.878e-07,0.63,0.02,0
0.031019,0.010611,0.027882,-2.1105e-06,0.0083639,-0.00017594,0,0,0.050746,-0.021752,0,-0.00091487,0,0,0,0.027883,-3.3412e-06,0.0083639,-0.36094,0.012081,0.024786,4.9221e-07,0.64,0.02,0
0.031527,0.010673,0.027964,-2.9616e-06,0.0083884,-0.00017421,0,0,0.050897,-0.021818,0,-0.00090589,0,0,0,0.027965,-4.1648e-06,0.0083884,-0.35635,0.012117,0.02486,4.9661e-07,0.65,0.02,0
0.032037,0.010732,0.028046,-3.7047e-06,0.0084127,-0.00017194,0,0,0.051046,-0.021883,0,-0.00089411,0,0,0,0.028047,-4.8734e-06,0.0084127,-0.3507,0.012152,0.024933,5.0098e-07,0.66,0.02,0
0.032548,0.010788,0.028126,-4.3523e-06,0.0084366,-0.00016921,0,0,0.051193,-0.021947,0,-0.00087987,0,0,0,0.028128,-5.481e-06,0.0084366,-0.34414,0.012186,0.025005,5.0531e-07,0.67,0.02,0
0.033061,0.010841,0.028206,-4.9158e-06,0.0084602,-0.00016606,0,0,0.051338,-0.022009,0,-0.00086349,0,0,0,0.028207,-6.0001e-06,0.0084602,-0.33679,0.01222,0.025075,5.096e-07,0.68,0.02,0
0.033575,0.010891,0.028283,-5.4056e-06,0.0084833,-0.00016255,0,0,0.051479,-0.022071,0,-0.00084524,0,0,0,0.028284,-6.4418e-06,0.0084833,-0.32878,0.012254,0.025145,5.1381e-07,0.69,0.02,0
0.034091,0.010938,0.028359,-5.8306e-06,0.0085059,-0.00015873,0,0,0.051618,-0.022131,0,-0.00082538,0,0,0,0.02836,-6.8162e-06,0.0085059,-0.32021,0.012286,0.025212,5.1796e-07,0.7,0.02,0
0.034607,0.010983,0.028433,-6.1987e-06,0.008528,-0.00015463,0,0,0.051753,-0.022189,0,-0.0008041,0,0,0,0.028434,-7.1319e-06,0.008528,-0.31115,0.012318,0.025278,5.2203e-07,0.71,0.02,0
0.035126,0.011025,0.028505,-6.5169e-06,0.0085496,-0.00015031,0,0,0.051884,-0.022246,0,-0.0007816,0,0,0,0.028506,-7.3966e-06,0.0085496,-0.30169,0.012349,0.025343,5.2601e-07,0.72,0.02,0
0.035645,0.011065,0.028575,-6.7912e-06,0.0085705,-0.00014578,0,0,0.052012,-0.022301,0,-0.00075804,0,0,0,0.028576,-7.6168e-06,0.0085705,-0.29189,0.01238,0.025405,5.299e-07,0.73,0.02,0
0.036166,0.011103,0.028643,-7.0268e-06,0.0085908,-0.00014107,0,0,0.052136,-0.022354,0,-0.00073357,0,0,0,0.028644,-7.7984e-06,0.0085908,-0.28181,0.012409,0.025465,5.3368e-07,0.74,0.02,0
0.036688,0.011139,0.028709,-7.2285e-06,0.0086104,-0.00013621,0,0,0.052255,-0.022406,0,-0.00070831,0,0,0,0.028709,-7.9463e-06,0.0086104,-0.2715,0.012437,0.025524,5.3735e-07,0.75,0.02,0
0.037211,0.011172,0.028772,-7.4001e-06,0.0086294,-0.00013123,0,0,0.052371,-0.022456,0,-0.00068239,0,0,0,0.028773,-8.0651e-06,0.0086294,-0.26099,0.012465,0.02558,5.4092e-07,0.76,0.02,0
0.037735,0.011204,0.028833,-7.5453e-06,0.0086476,-0.00012613,0,0,0.052482,-0.022503,0,-0.00065589,0,0,0,0.028834,-8.1585e-06,0.0086476,-0.25034,0.012491,0.025634,5.4436e-07,0.77,0.02,0
0.038261,0.011234,0.028891,-7.6673e-06,0.0086651,-0.00012095,0,0,0.052588,-0.022549,0,-0.00062891,0,0,0,0.028892,-8.23e-06,0.0086651,-0.23956,0.012516,0.025686,5.4768e-07,0.78,0.02,0
0.038787,0.011262,0.028948,-7.7688e-06,0.008682,-0.00011568,0,0,0.052691,-0.022593,0,-0.00060153,0,0,0,0.028948,-8.2827e-06,0.008682,-0.22869,0.012541,0.025736,5.5088e-07,0.79,0.02,0
0.039314,0.011288,0.029001,-7.8523e-06,0.008698,-0.00011035,0,0,0.052788,-0.022635,0,-0.00057381,0,0,0,0.029002,-8.3193e-06,0.008698,-0.21776,0.012564,0.025784,5.5394e-07,0.8,0.02,0
0.039843,0.011312,0.029052,-7.9203e-06,0.0087133,-0.00010496,0,0,0.052882,-0.022675,0,-0.00054582,0,0,0,0.029053,-8.3422e-06,0.0087133,-0.20677,0.012586,0.025829,5.5687e-07,0.81,0.02,0
0.040372,0.011335,0.029101,-7.9747e-06,0.0087279,-9.9537e-05,0,0,0.05297,-0.022713,0,-0.00051759,0,0,0,0.029101,-8.3535e-06,0.0087279,-0.19576,0.012607,0.025872,5.5967e-07,0.82,0.02,0
0.040902,0.011356,0.029147,-8.0173e-06,0.0087417,-9.4075e-05,0,0,0.053054,-0.022749,0,-0.00048919,0,0,0,0.029147,-8.3553e-06,0.0087417,-0.18473,0.012627,0.025913,5.6232e-07,0.83,0.02,0
0.041433,0.011376,0.02919,-8.05e-06,0.0087547,-8.8586e-05,0,0,0.053133,-0.022783,0,-0.00046065,0,0,0,0.029191,-8.3493e-06,0.0087547,-0.1737,0.012646,0.025952,5.6484e-07,0.84,0.02,0
0.041965,0.011394,0.029231,-8.0741e-06,0.0087669,-8.3077e-05,0,0,0.053207,-0.022815,0,-0.000432,0,0,0,0.029231,-8.3371e-06,0.0087669,-0.16267,0.012663,0.025988,5.6721e-07,0.85,0.02,0
0.042497,0.011411,0.029269,-8.0911e-06,0.0087784,-7.7552e-05,0,0,0.053277,-0.022845,0,-0.00040327,0,0,0,0.02927,-8.3201e-06,0.0087784,-0.15166,0.01268,0.026022,5.6943e-07,0.86,0.02,0
0.04303,0.011427,0.029305,-8.1022e-06,0.0087891,-7.2016e-05,0,0,0.053341,-0.022873,0,-0.00037448,0,0,0,0.029305,-8.2995e-06,0.0087891,-0.14066,0.012695,0.026054,5.7151e-07,0.87,0.02,0
0.043564,0.011441,0.029338,-8.1085e-06,0.008799,-6.6474e-05,0,0,0.053401,-0.022898,0,-0.00034566,0,0,0,0.029338,-8.2765e-06,0.008799,-0.1297,0.01271,0.026083,5.7344e-07,0.88,0.02,0
0.044098,0.011454,0.029368,-8.111e-06,0.0088081,-6.0927e-05,0,0,0.053457,-0.022922,0,-0.00031682,0,0,0,0.029368,-8.2521e-06,0.0088081,-0.11875,0.012723,0.02611,5.7521e-07,0.89,0.02,0
0.044633,0.011466,0.029396,-8.1106e-06,0.0088164,-5.5379e-05,0,0,0.053507,-0.022944,0,-0.00028797,0,0,0,0.029396,-8.2272e-06,0.0088164,-0.10784,0.012735,0.026134,5.7684e-07,0.9,0.02,0
0.045169,0.011476,0.029421,-8.1082e-06,0.0088239,-4.9831e-05,0,0,0.053553,-0.022963,0,-0.00025912,0,0,0,0.029421,-8.2026e-06,0.0088239,-0.096953,0.012746,0.026157,5.7831e-07,0.91,0.02,0
0.045704,0.011486,0.029444,-8.1042e-06,0.0088306,-4.4284e-05,0,0,0.053594,-0.022981,0,-0.00023028,0,0,0,0.029444,-8.1789e-06,0.0088306,-0.086097,0.012755,0.026177,5.7964e-07,0.92,0.02,0
0.04624,0.011494,0.029463,-8.0995e-06,0.0088366,-3.8739e-05,0,0,0.05363,-0.022996,0,-0.00020145,0,0,0,0.029463,-8.1567e-06,0.0088366,-0.075268,0.012764,0.026194,5.808e-07,0.93,0.02,0
0.046777,0.011501,0.02948,-8.0944e-06,0.0088417,-3.3198e-05,0,0,0.053661,-0.02301,0,-0.00017263,0,0,0,0.029481,-8.1365e-06,0.0088417,-0.064464,0.012771,0.026209,5.8182e-07,0.94,0.02,0
0.047314,0.011507,0.029495,-8.0894e-06,0.0088461,-2.7659e-05,0,0,0.053687,-0.023021,0,-0.00014383,0,0,0,0.029495,-8.1188e-06,0.0088461,-0.053683,0.012778,0.026222,5.8268e-07,0.95,0.02,0
0.047851,0.011512,0.029507,-8.0848e-06,0.0088496,-2.2123e-05,0,0,0.053709,-0.02303,0,-0.00011504,0,0,0,0.029507,-8.1038e-06,0.0088496,-0.042922,0.012783,0.026233,5.8338e-07,0.96,0.02,0
0.048388,0.011515,0.029516,-8.081e-06,0.0088524,-1.659e-05,0,0,0.053726,-0.023037,0,-8.6268e-05,0,0,0,0.029516,-8.0919e-06,0.0088524,-0.032177,0.012787,0.026241,5.8392e-07,0.97,0.02,0
0.048925,0.011518,0.029523,-8.0781e-06,0.0088544,-1.1059e-05,0,0,0.053738,-0.023042,0,-5.7506e-05,0,0,0,0.029523,-8.0832e-06,0.0088544,-0.021444,0.01279,0.026247,5.8432e-07,0.98,0.02,0
0.049462,0.01152,0.029527,-8.0763e-06,0.0088556,-2.9743e-06,0,0,0.053745,-0.023045,0,-1.5466e-05,0,0,0,0.029527,-8.0789e-06,0.0088556,-0.0057639,0.012791,0.02625,5.8455e-07,0.99,0.02,0
0.049731,0.01152,0.029528,-8.0757e-06,0.008856,2.3451e-06,0,0,0.053747,-0.023047,0,1.2195e-05,0,0,0,0.029528,-8.078e-06,0.008856,0.0045525,0.012792,0.026251,5.8463e-07,1,0.02,0
0.00023495,0.00026465,0.031346,0.011783,0.012939,0.0099045,0,0,0.047859,-0.0030055,0,0.051503,0,0,0,0.035506,0.0076224,0.012939,22.736,0.018689,0.02565,7.4899e-07,0,0.03,0
0.00047859,0.00053747,0.031238,0.010038,0.012383,0.0095218,0,0,0.049024,-0.0060964,0,0.049513,0,0,0,0.034945,0.0063315,0.012383,21.102,0.017886,0.026133,7.5623e-07,0.01,0.03,0
0.00098048,0.0010863,0.031114,0.0069036,0.011405,0.0085138,0,0,0.051243,-0.011704,0,0.044272,0,0,0,0.033887,0.0041301,0.011405,17.7,0.016474,0.026878,7.581e-07,0.02,0.03,0
0.0015034,0.0016216,0.03086,0.0046531,0.010654,0.0071381,0,0,0.052536,-0.015602,0,0.037118,0,0,0,0.032754,0.0027592,0.010654,14.357,0.015389,0.026933,7.2232e-07,0.03,0.03,0
0.0020312,0.0021156,0.030193,0.0032541,0.010034,0.0057078,0,0,0.052413,-0.017628,0,0.029681,0,0,0,0.031412,0.0020355,0.010034,11.497,0.014494,0.026307,6.535e-07,0.04,0.03,0
0.0025517,0.0025597,0.029283,0.0023669,0.0094951,0.0044703,0,0,0.051449,-0.018533,0,0.023245,0,0,0,0.030049,0.0016015,0.0094951,9.1759,0.013715,0.025437,5.8021e-07,0.05,0.03,0
0.0030602,0.0029549,0.028351,0.0017858,0.009041,0.0034646,0,0,0.050206,-0.018864,0,0.018016,0,0,0,0.028825,0.0013118,0.009041,7.289,0.013059,0.024578,5.1696e-07,0.06,0.03,0
0.0035558,0.0033047,0.027506,0.0013914,0.0086692,0.0026553,0,0,0.048975,-0.018922,0,0.013808,0,0,0,0.027793,0.0011038,0.0086692,5.7258,0.012522,0.023826,4.6658e-07,0.07,0.03,0
0.0040397,0.0036132,0.026785,0.001113,0.0083695,0.0019992,0,0,0.047881,-0.018867,0,0.010396,0,0,0,0.026954,0.00094428,0.0083695,4.407,0.012089,0.023206,4.2785e-07,0.08,0.03,0
0.0045134,0.0038843,0.026194,0.00090797,0.0081306,0.001461,0,0,0.046965,-0.018779,0,0.0075973,0,0,0,0.026288,0.00081442,0.0081306,3.2802,0.011744,0.022717,3.9873e-07,0.09,0.03,0
0.004979,0.0041217,0.025724,0.00075043,0.0079425,0.0010149,0,0,0.046233,-0.018699,0,0.0052772,0,0,0,0.025772,0.00070299,0.0079425,2.3114,0.011472,0.022347,3.7727e-07,0.1,0.03,0
0.0054381,0.0043289,0.025364,0.00062413,0.0077964,0.00064257,0,0,0.045676,-0.018648,0,0.0033414,0,0,0,0.025385,0.00060338,0.0077964,1.4786,0.011262,0.022082,3.6193e-07,0.11,0.03,0
0.0058925,0.0045093,0.025099,0.00051885,0.0076854,0.00033141,0,0,0.045276,-0.018633,0,0.0017234,0,0,0,0.025106,0.00051181,0.0076854,0.76719,0.011101,0.021907,3.5146e-07,0.12,0.03,0
0.0063436,0.0046659,0.024918,0.00042808,0.0076037,7.2379e-05,0,0,0.045016,-0.018657,0,0.00037637,0,0,0,0.024919,0.0004263,0.0076037,0.16658,0.010983,0.021809,3.4491e-07,0.13,0.03,0
0.0067928,0.004802,0.024807,0.00034776,0.0075464,-0.00014106,0,0,0.044877,-0.018716,0,-0.00073351,0,0,0,0.024809,0.00034604,0.0075464,-0.33144,0.0109,0.021775,3.415e-07,0.14,0.03,0
0.0072412,0.0049206,0.024756,0.00027549,0.0075096,-0.00031385,0,0,0.044842,-0.018809,0,-0.001632,0,0,0,0.024761,0.00027094,0.0075096,-0.73424,0.010847,0.021792,3.4064e-07,0.15,0.03,0
0.0076897,0.0050246,0.024756,0.00020996,0.0074898,-0.00044998,0,0,0.044892,-0.018927,0,-0.0023399,0,0,0,0.024764,0.00020139,0.0074898,-1.0491,0.010819,0.02185,3.4182e-07,0.16,0.03,0
0.008139,0.005117,0.024796,0.0001506,0.0074841,-0.00055297,0,0,0.045012,-0.019067,0,-0.0028755,0,0,0,0.024809,0.00013796,0.0074841,-1.2836,0.01081,0.021941,3.4461e-07,0.17,0.03,0
0.0085899,0.0052004,0.024869,9.7273e-05,0.0074899,-0.00062613,0,0,0.045186,-0.019221,0,-0.0032559,0,0,0,0.024885,8.122e-05,0.0074899,-1.446,0.010819,0.022054,3.4866e-07,0.18,0.03,0
0.0090427,0.0052775,0.024967,5.0009e-05,0.0075052,-0.00067271,0,0,0.045402,-0.019384,0,-0.0034981,0,0,0,0.024986,3.1585e-05,0.0075052,-1.5446,0.010841,0.022183,3.5365e-07,0.19,0.03,0
0.0094979,0.0053507,0.025085,8.8044e-06,0.007528,-0.00069595,0,0,0.045647,-0.01955,0,-0.003619,0,0,0,0.025104,-1.0827e-05,0.007528,-1.5881,0.010874,0.022322,3.5935e-07,0.2,0.03,0
0.0099557,0.0054222,0.025215,-2.6525e-05,0.0075565,-0.00069902,0,0,0.045912,-0.019716,0,-0.0036349,0,0,0,0.025235,-4.6255e-05,0.0075565,-1.585,0.010915,0.022466,3.6552e-07,0.21,0.03,0
0.010416,0.0054941,0.025354,-5.6386e-05,0.0075892,-0.00068489,0,0,0.046188,-0.019878,0,-0.0035614,0,0,0,0.025373,-7.5265e-05,0.0075892,-1.5431,0.010962,0.022612,3.72e-07,0.22,0.03,0
0.010879,0.005568,0.025497,-8.1337e-05,0.0076247,-0.00065625,0,0,0.046468,-0.020036,0,-0.0034125,0,0,0,0.025514,-9.8626e-05,0.0076247,-1.4694,0.011013,0.022756,3.7863e-07,0.23,0.03,0
0.011346,0.0056455,0.025641,-0.00010194,0.0076617,-0.00061545,0,0,0.046746,-0.020185,0,-0.0032003,0,0,0,0.025656,-0.00011712,0.0076617,-1.3697,0.011067,0.022897,3.8527e-07,0.24,0.03,0
0.011814,0.0057278,0.025783,-0.00011858,0.0076992,-0.00056457,0,0,0.047017,-0.020326,0,-0.0029358,0,0,0,0.025795,-0.00013135,0.0076992,-1.2492,0.011121,0.023032,3.918e-07,0.25,0.03,0
0.012286,0.005816,0.025919,-0.00013139,0.0077363,-0.00050554,0,0,0.047275,-0.020456,0,-0.0026288,0,0,0,0.025929,-0.00014165,0.0077363,-1.1125,0.011175,0.02316,3.981e-07,0.26,0.03,0
0.01276,0.0059109,0.026048,-0.00014022,0.0077724,-0.00044031,0,0,0.047517,-0.020573,0,-0.0022896,0,0,0,0.026056,-0.00014803,0.0077724,-0.96412,0.011227,0.023277,4.0406e-07,0.27,0.03,0
0.013236,0.006013,0.026168,-0.00014476,0.0078068,-0.00037095,0,0,0.047738,-0.020674,0,-0.0019289,0,0,0,0.026173,-0.00015035,0.0078068,-0.80863,0.011277,0.023383,4.0956e-07,0.28,0.03,0
0.013715,0.0061226,0.026276,-0.00014476,0.0078392,-0.00029971,0,0,0.047934,-0.020758,0,-0.0015585,0,0,0,0.026279,-0.00014846,0.0078392,-0.65081,0.011323,0.023476,4.1452e-07,0.29,0.03,0
0.014195,0.0062397,0.026371,-0.00014013,0.0078693,-0.00022897,0,0,0.048104,-0.020824,0,-0.0011906,0,0,0,0.026373,-0.00014236,0.0078693,-0.4956,0.011367,0.023555,4.1886e-07,0.3,0.03,0
0.014677,0.0063641,0.026453,-0.00013111,0.0078967,-0.00016106,0,0,0.048247,-0.020872,0,-0.00083752,0,0,0,0.026454,-0.00013228,0.0078967,-0.34774,0.011406,0.023619,4.2257e-07,0.31,0.03,0
0.01516,0.0064955,0.026523,-0.00011824,0.0079213,-9.8165e-05,0,0,0.048363,-0.020903,0,-0.00051046,0,0,0,0.026523,-0.00011874,0.0079213,-0.21159,0.011442,0.023669,4.2562e-07,0.32,0.03,0
0.015644,0.0066333,0.026579,-0.00010227,0.0079431,-4.2114e-05,0,0,0.048454,-0.020918,0,-0.00021899,0,0,0,0.026579,-0.00010244,0.0079431,-0.090761,0.011473,0.023706,4.2805e-07,0.33,0.03,0
0.016129,0.0067766,0.026625,-8.4125e-05,0.0079621,5.6759e-06,0,0,0.048522,-0.02092,0,2.9515e-05,0,0,0,0.026625,-8.4193e-05,0.0079621,0.011966,0.011501,0.023732,4.2992e-07,0.34,0.03,0
0.016614,0.0069247,0.02666,-6.4767e-05,0.0079785,4.4266e-05,0,0,0.048571,-0.020913,0,0.00023018,0,0,0,0.02666,-6.4881e-05,0.0079785,0.094778,0.011525,0.023748,4.3129e-07,0.35,0.03,0
0.0171,0.0070767,0.026687,-4.5115e-05,0.0079925,7.3193e-05,0,0,0.048605,-0.020898,0,0.00038061,0,0,0,0.026687,-4.5339e-05,0.0079925,0.15681,0.011545,0.023756,4.3226e-07,0.36,0.03,0
0.017587,0.0072314,0.026707,-2.5998e-05,0.0080044,9.2442e-05,0,0,0.048627,-0.020879,0,0.0004807,0,0,0,0.026708,-2.633e-05,0.0080044,0.19809,0.011562,0.023759,4.3292e-07,0.37,0.03,0
0.018073,0.0073881,0.026723,-8.1084e-06,0.0080145,0.00010238,0,0,0.048642,-0.020859,0,0.0005324,0,0,0,0.026723,-8.5067e-06,0.0080145,0.21943,0.011576,0.023759,4.3338e-07,0.38,0.03,0
0.018559,0.0075456,0.026736,8.0124e-06,0.0080232,0.00010371,0,0,0.048653,-0.02084,0,0.00053931,0,0,0,0.026736,7.6051e-06,0.0080232,0.22232,0.011589,0.023758,4.3374e-07,0.39,0.03,0
0.019046,0.007703,0.026748,2.1978e-05,0.008031,9.7372e-05,0,0,0.048664,-0.020824,0,0.00050633,0,0,0,0.026748,2.1617e-05,0.008031,0.20875,0.0116,0.023757,4.3408e-07,0.4,0.03,0
0.019533,0.0078595,0.026761,3.3551e-05,0.0080383,8.4467e-05,0,0,0.048678,-0.020812,0,0.00043923,0,0,0,0.026761,3.3275e-05,0.0080383,0.18109,0.011611,0.023759,4.3449e-07,0.41,0.03,0
0.02002,0.0080144,0.026775,4.2635e-05,0.0080454,6.6207e-05,0,0,0.048698,-0.020807,0,0.00034428,0,0,0,0.026776,4.2457e-05,0.0080454,0.14194,0.011621,0.023765,4.3504e-07,0.42,0.03,0
0.020507,0.0081669,0.026793,4.9256e-05,0.0080527,4.3829e-05,0,0,0.048725,-0.020809,0,0.00022791,0,0,0,0.026793,4.9165e-05,0.0080527,0.093974,0.011632,0.023775,4.3579e-07,0.43,0.03,0
0.020994,0.0083164,0.026815,5.3543e-05,0.0080606,1.8542e-05,0,0,0.048761,-0.020818,0,9.6416e-05,0,0,0,0.026815,5.3505e-05,0.0080606,0.039814,0.011643,0.023791,4.3678e-07,0.44,0.03,0
0.021482,0.0084624,0.026841,5.5707e-05,0.0080692,-8.5246e-06,0,0,0.048808,-0.020835,0,-4.4328e-05,0,0,0,0.026841,5.5674e-05,0.0080692,-0.018068,0.011655,0.023813,4.3804e-07,0.45,0.03,0
0.02197,0.0086045,0.026873,5.6018e-05,0.0080787,-3.6354e-05,0,0,0.048865,-0.020859,0,-0.00018904,0,0,0,0.026873,5.5932e-05,0.0080787,-0.07745,0.011669,0.023841,4.3959e-07,0.46,0.03,0
0.022459,0.0087424,0.02691,5.4778e-05,0.0080894,-6.407e-05,0,0,0.048933,-0.02089,0,-0.00033317,0,0,0,0.02691,5.4582e-05,0.0080894,-0.13641,0.011685,0.023875,4.4144e-07,0.47,0.03,0
0.022949,0.0088759,0.026952,5.2297e-05,0.0081013,-9.0953e-05,0,0,0.049012,-0.020928,0,-0.00047295,0,0,0,0.026952,5.194e-05,0.0081013,-0.19339,0.011702,0.023914,4.4358e-07,0.48,0.03,0
0.023439,0.0090047,0.027,4.8881e-05,0.0081145,-0.00011643,0,0,0.049101,-0.020971,0,-0.00060545,0,0,0,0.027,4.8321e-05,0.0081145,-0.24713,0.011721,0.02396,4.4601e-07,0.49,0.03,0
0.023931,0.0091287,0.027052,4.4809e-05,0.008129,-0.00014009,0,0,0.049199,-0.021019,0,-0.00072847,0,0,0,0.027053,4.4019e-05,0.008129,-0.29675,0.011742,0.02401,4.487e-07,0.5,0.03,0
0.024423,0.009248,0.027109,4.0329e-05,0.0081447,-0.00016164,0,0,0.049306,-0.021071,0,-0.00084052,0,0,0,0.02711,3.9294e-05,0.0081447,-0.34163,0.011765,0.024064,4.5164e-07,0.51,0.03,0
0.024917,0.0093625,0.02717,3.5652e-05,0.0081616,-0.00018091,0,0,0.049421,-0.021128,0,-0.00094074,0,0,0,0.027171,3.437e-05,0.0081616,-0.38145,0.011789,0.024123,4.548e-07,0.52,0.03,0
0.025412,0.0094721,0.027235,3.0949e-05,0.0081797,-0.00019784,0,0,0.049543,-0.021187,0,-0.0010287,0,0,0,0.027236,2.9428e-05,0.0081797,-0.41609,0.011815,0.024184,4.5817e-07,0.53,0.03,0
0.025908,0.0095771,0.027303,2.6351e-05,0.0081987,-0.00021242,0,0,0.04967,-0.021248,0,-0.0011046,0,0,0,0.027304,2.4609e-05,0.0081987,-0.44558,0.011843,0.024249,4.6171e-07,0.54,0.03,0
0.026405,0.0096774,0.027373,2.1956e-05,0.0082186,-0.00022473,0,0,0.049802,-0.021311,0,-0.0011686,0,0,0,0.027375,2.0016e-05,0.0082186,-0.47011,0.011871,0.024316,4.6541e-07,0.55,0.03,0
0.026904,0.0097733,0.027446,1.7829e-05,0.0082393,-0.00023487,0,0,0.049939,-0.021376,0,-0.0012213,0,0,0,0.027449,1.5721e-05,0.0082393,-0.48996,0.011901,0.024384,4.6923e-07,0.56,0.03,0
0.027404,0.0098647,0.027521,1.4012e-05,0.0082606,-0.00024299,0,0,0.050078,-0.021441,0,-0.0012635,0,0,0,0.027524,1.1765e-05,0.0082606,-0.50546,0.011932,0.024454,4.7317e-07,0.57,0.03,0
0.027905,0.0099519,0.027598,1.0523e-05,0.0082825,-0.00024923,0,0,0.05022,-0.021507,0,-0.001296,0,0,0,0.0276,8.1679e-06,0.0082825,-0.51696,0.011964,0.024525,4.7719e-07,0.58,0.03,0
0.028408,0.010035,0.027675,7.3661e-06,0.0083048,-0.00025377,0,0,0.050363,-0.021573,0,-0.0013196,0,0,0,0.027678,4.9336e-06,0.0083048,-0.52485,0.011996,0.024597,4.8128e-07,0.59,0.03,0
0.028913,0.010114,0.027753,4.5337e-06,0.0083274,-0.00025676,0,0,0.050508,-0.021639,0,-0.0013352,0,0,0,0.027756,2.0521e-06,0.0083274,-0.52951,0.012028,0.024668,4.8543e-07,0.6,0.03,0
0.029419,0.010189,0.027832,2.0093e-06,0.0083502,-0.00025836,0,0,0.050653,-0.021705,0,-0.0013435,0,0,0,0.027834,-4.9521e-07,0.0083502,-0.53127,0.012061,0.02474,4.896e-07,0.61,0.03,0
0.029926,0.010261,0.02791,-2.2844e-07,0.0083731,-0.00025872,0,0,0.050797,-0.021771,0,-0.0013454,0,0,0,0.027913,-2.7321e-06,0.0083731,-0.5305,0.012094,0.024812,4.9379e-07,0.62,0.03,0
0.030434,0.010329,0.027989,-2.2034e-06,0.0083959,-0.00025798,0,0,0.050941,-0.021835,0,-0.0013415,0,0,0,0.027991,-4.6854e-06,0.0083959,-0.52748,0.012127,0.024883,4.9799e-07,0.63,0.03,0
0.030945,0.010393,0.028066,-3.9406e-06,0.0084187,-0.00025627,0,0,0.051084,-0.021899,0,-0.0013326,0,0,0,0.028069,-6.3826e-06,0.0084187,-0.52251,0.01216,0.024953,5.0218e-07,0.64,0.03,0
0.031456,0.010454,0.028143,-5.4646e-06,0.0084414,-0.0002537,0,0,0.051225,-0.021962,0,-0.0013192,0,0,0,0.028146,-7.8512e-06,0.0084414,-0.51584,0.012193,0.025023,5.0635e-07,0.65,0.03,0
0.031969,0.010513,0.028219,-6.7988e-06,0.0084638,-0.00025037,0,0,0.051365,-0.022023,0,-0.0013019,0,0,0,0.028222,-9.1168e-06,0.0084638,-0.50769,0.012225,0.025091,5.1048e-07,0.66,0.03,0
0.032483,0.010568,0.028294,-7.9649e-06,0.0084859,-0.00024637,0,0,0.051502,-0.022084,0,-0.0012811,0,0,0,0.028297,-1.0204e-05,0.0084859,-0.49826,0.012257,0.025159,5.1457e-07,0.67,0.03,0
0.032999,0.01062,0.028368,-8.9826e-06,0.0085077,-0.00024179,0,0,0.051637,-0.022143,0,-0.0012573,0,0,0,0.02837,-1.1134e-05,0.0085077,-0.48773,0.012289,0.025225,5.1861e-07,0.68,0.03,0
0.033516,0.010669,0.02844,-9.8695e-06,0.0085291,-0.0002367,0,0,0.051769,-0.022201,0,-0.0012309,0,0,0,0.028442,-1.1926e-05,0.0085291,-0.47626,0.01232,0.025289,5.2258e-07,0.69,0.03,0
0.034035,0.010716,0.028511,-1.0641e-05,0.00855,-0.00023117,0,0,0.051898,-0.022258,0,-0.0012021,0,0,0,0.028513,-1.2598e-05,0.00855,-0.46397,0.01235,0.025353,5.2649e-07,0.7,0.03,0
0.034554,0.01076,0.02858,-1.1312e-05,0.0085705,-0.00022524,0,0,0.052024,-0.022313,0,-0.0011713,0,0,0,0.028581,-1.3165e-05,0.0085705,-0.45099,0.01238,0.025414,5.3032e-07,0.71,0.03,0
0.035075,0.010802,0.028647,-1.1893e-05,0.0085904,-0.00021898,0,0,0.052146,-0.022366,0,-0.0011387,0,0,0,0.028648,-1.3641e-05,0.0085904,-0.43743,0.012408,0.025474,5.3406e-07,0.72,0.03,0
0.035597,0.010842,0.028712,-1.2396e-05,0.0086098,-0.00021242,0,0,0.052265,-0.022418,0,-0.0011046,0,0,0,0.028714,-1.4037e-05,0.0086098,-0.42337,0.012436,0.025532,5.3772e-07,0.73,0.03,0
0.03612,0.010879,0.028775,-1.2829e-05,0.0086287,-0.0002056,0,0,0.052381,-0.022468,0,-0.0010691,0,0,0,0.028777,-1.4363e-05,0.0086287,-0.40889,0.012464,0.025589,5.4127e-07,0.74,0.03,0
0.036645,0.010914,0.028836,-1.3201e-05,0.0086469,-0.00019856,0,0,0.052492,-0.022516,0,-0.0010325,0,0,0,0.028838,-1.4629e-05,0.0086469,-0.39406,0.01249,0.025643,5.4473e-07,0.75,0.03,0
0.03717,0.010947,0.028895,-1.3518e-05,0.0086645,-0.00019134,0,0,0.0526,-0.022563,0,-0.00099495,0,0,0,0.028897,-1.4842e-05,0.0086645,-0.37895,0.012515,0.025696,5.4808e-07,0.76,0.03,0
0.037697,0.010978,0.028952,-1.3788e-05,0.0086815,-0.00018395,0,0,0.052704,-0.022608,0,-0.00095652,0,0,0,0.028953,-1.501e-05,0.0086815,-0.3636,0.01254,0.025746,5.5132e-07,0.77,0.03,0
0.038224,0.011008,0.029007,-1.4016e-05,0.0086978,-0.00017642,0,0,0.052803,-0.022651,0,-0.00091737,0,0,0,0.029008,-1.5137e-05,0.0086978,-0.34807,0.012564,0.025795,5.5444e-07,0.78,0.03,0
0.038753,0.011035,0.029059,-1.4206e-05,0.0087135,-0.00016877,0,0,0.052899,-0.022692,0,-0.00087761,0,0,0,0.02906,-1.5231e-05,0.0087135,-0.33239,0.012586,0.025841,5.5745e-07,0.79,0.03,0
0.039282,0.011061,0.029109,-1.4364e-05,0.0087285,-0.00016103,0,0,0.05299,-0.022731,0,-0.00083734,0,0,0,0.02911,-1.5295e-05,0.0087285,-0.3166,0.012608,0.025886,5.6033e-07,0.8,0.03,0
0.039813,0.011085,0.029157,-1.4493e-05,0.0087428,-0.0001532,0,0,0.053077,-0.022769,0,-0.00079664,0,0,0,0.029158,-1.5335e-05,0.0087428,-0.30072,0.012628,0.025928,5.6309e-07,0.81,0.03,0
0.040344,0.011107,0.029202,-1.4597e-05,0.0087564,-0.00014531,0,0,0.05316,-0.022805,0,-0.00075559,0,0,0,0.029203,-1.5353e-05,0.0087564,-0.28479,0.012648,0.025969,5.6571e-07,0.82,0.03,0
0.040876,0.011128,0.029246,-1.4679e-05,0.0087693,-0.00013736,0,0,0.053238,-0.022838,0,-0.00071426,0,0,0,0.029246,-1.5355e-05,0.0087693,-0.26882,0.012667,0.026007,5.6821e-07,0.83,0.03,0
0.041409,0.011148,0.029286,-1.4744e-05,0.0087814,-0.00012937,0,0,0.053312,-0.02287,0,-0.00067271,0,0,0,0.029287,-1.5342e-05,0.0087814,-0.25283,0.012684,0.026043,5.7058e-07,0.84,0.03,0
0.041942,0.011166,0.029324,-1.4792e-05,0.0087929,-0.00012134,0,0,0.053382,-0.0229,0,-0.00063097,0,0,0,0.029325,-1.5318e-05,0.0087929,-0.23684,0.012701,0.026077,5.7281e-07,0.85,0.03,0
0.042476,0.011182,0.02936,-1.4827e-05,0.0088036,-0.00011329,0,0,0.053447,-0.022928,0,-0.00058911,0,0,0,0.029361,-1.5285e-05,0.0088036,-0.22086,0.012716,0.026108,5.749e-07,0.86,0.03,0
0.043011,0.011198,0.029393,-1.4851e-05,0.0088136,-0.00010522,0,0,0.053508,-0.022954,0,-0.00054714,0,0,0,0.029394,-1.5246e-05,0.0088136,-0.2049,0.012731,0.026138,5.7686e-07,0.87,0.03,0
0.043546,0.011212,0.029424,-1.4866e-05,0.0088229,-9.7134e-05,0,0,0.053564,-0.022978,0,-0.0005051,0,0,0,0.029425,-1.5203e-05,0.0088229,-0.18896,0.012744,0.026165,5.7867e-07,0.88,0.03,0
0.044082,0.011224,0.029453,-1.4874e-05,0.0088314,-8.9041e-05,0,0,0.053616,-0.023,0,-0.00046301,0,0,0,0.029453,-1.5157e-05,0.0088314,-0.17305,0.012756,0.026191,5.8035e-07,0.89,0.03,0
0.044619,0.011236,0.029479,-1.4877e-05,0.0088392,-8.0942e-05,0,0,0.053663,-0.023021,0,-0.0004209,0,0,0,0.029479,-1.511e-05,0.0088392,-0.15717,0.012768,0.026214,5.8188e-07,0.9,0.03,0
0.045155,0.011246,0.029502,-1.4875e-05,0.0088462,-7.2841e-05,0,0,0.053706,-0.023039,0,-0.00037877,0,0,0,0.029502,-1.5064e-05,0.0088462,-0.14133,0.012778,0.026234,5.8327e-07,0.91,0.03,0
0.045693,0.011256,0.029523,-1.487e-05,0.0088525,-6.4739e-05,0,0,0.053744,-0.023055,0,-0.00033664,0,0,0,0.029523,-1.502e-05,0.0088525,-0.12552,0.012787,0.026253,5.8451e-07,0.92,0.03,0
0.04623,0.011264,0.029542,-1.4864e-05,0.0088581,-5.6639e-05,0,0,0.053778,-0.02307,0,-0.00029452,0,0,0,0.029542,-1.4978e-05,0.0088581,-0.10975,0.012795,0.026269,5.8561e-07,0.93,0.03,0
0.046768,0.01127,0.029558,-1.4856e-05,0.0088629,-4.854e-05,0,0,0.053807,-0.023082,0,-0.00025241,0,0,0,0.029558,-1.4941e-05,0.0088629,-0.094005,0.012802,0.026284,5.8656e-07,0.94,0.03,0
0.047307,0.011276,0.029572,-1.4849e-05,0.008867,-4.0444e-05,0,0,0.053832,-0.023093,0,-0.00021031,0,0,0,0.029572,-1.4908e-05,0.008867,-0.078291,0.012808,0.026296,5.8737e-07,0.95,0.03,0
0.047845,0.011281,0.029583,-1.4842e-05,0.0088704,-3.2351e-05,0,0,0.053852,-0.023102,0,-0.00016823,0,0,0,0.029583,-1.488e-05,0.0088704,-0.062602,0.012813,0.026306,5.8804e-07,0.96,0.03,0
0.048384,0.011285,0.029591,-1.4836e-05,0.008873,-2.4261e-05,0,0,0.053868,-0.023108,0,-0.00012616,0,0,0,0.029591,-1.4858e-05,0.008873,-0.046933,0.012817,0.026313,5.8855e-07,0.97,0.03,0
0.048922,0.011287,0.029598,-1.4831e-05,0.0088748,-1.6173e-05,0,0,0.053879,-0.023113,0,-8.4098e-05,0,0,0,0.029598,-1.4842e-05,0.0088748,-0.031279,0.012819,0.026319,5.8892e-07,0.98,0.03,0
0.049461,0.011289,0.029601,-1.4829e-05,0.0088759,-5.5791e-06,0,0,0.053886,-0.023116,0,-2.9011e-05,0,0,0,0.029601,-1.4833e-05,0.0088759,-0.010787,0.012821,0.026322,5.8914e-07,0.99,0.03,0
0.049731,0.011289,0.029603,-1.4828e-05,0.0088763,9.7094e-07,0,0,0.053888,-0.023117,0,5.0488e-06,0,0,0,0.029603,-1.483e-05,0.0088763,0.0018816,0.012821,0.026323,5.8921e-07,1,0.03,0
0.00021917,0.00024199,0.029392,0.011537,0.012279,0.0091812,0,0,0.044495,-0.0019289,0,0.047742,0,0,0,0.033279,0.0076499,0.012279,22.922,0.017736,0.02366,5.9575e-07,0,0.04,0
0.00044495,0.00048991,0.029412,0.010368,0.011934,0.0090041,0,0,0.045443,-0.0040722,0,0.046821,0,0,0,0.033018,0.0067608,0.011934,21.769,0.017238,0.024099,6.0983e-07,0.01,0.04,0
0.00090885,0.00099001,0.02953,0.0080595,0.011277,0.0084624,0,0,0.047458,-0.0083648,0,0.044005,0,0,0,0.032502,0.0050868,0.011277,19.213,0.016289,0.024911,6.3249e-07,0.02,0.04,0
0.0013941,0.0014853,0.029597,0.0060247,0.010686,0.0075472,0,0,0.049167,-0.01212,0,0.039245,0,0,0,0.031851,0.0037701,0.010686,16.378,0.015436,0.025345,6.3161e-07,0.03,0.04,0
0.0018922,0.0019542,0.029392,0.0044969,0.010167,0.0064053,0,0,0.049986,-0.014742,0,0.033307,0,0,0,0.030985,0.0029037,0.010167,13.645,0.014685,0.025249,6.0242e-07,0.04,0.04,0
0.0023938,0.0023847,0.02895,0.0034236,0.0097119,0.0052654,0,0,0.050018,-0.01635,0,0.02738,0,0,0,0.030027,0.0023457,0.0097119,11.218,0.014028,0.024833,5.5996e-07,0.05,0.04,0
0.0028925,0.0027733,0.028375,0.0026689,0.0093132,0.0042378,0,0,0.049561,-0.017275,0,0.022037,0,0,0,0.029083,0.0019616,0.0093132,9.1213,0.013452,0.024295,5.1587e-07,0.06,0.04,0
0.003385,0.0031201,0.027772,0.0021284,0.00897,0.0033505,0,0,0.048884,-0.017788,0,0.017423,0,0,0,0.028222,0.0016777,0.00897,7.3148,0.012957,0.023754,4.7624e-07,0.07,0.04,0
0.0038702,0.0034275,0.0272,0.0017307,0.0086793,0.0025956,0,0,0.048155,-0.018066,0,0.013497,0,0,0,0.027477,0.001454,0.0086793,5.7511,0.012537,0.023268,4.431e-07,0.08,0.04,0
0.0043481,0.0036984,0.026692,0.0014285,0.0084362,0.0019554,0,0,0.047465,-0.01822,0,0.010168,0,0,0,0.026853,0.0012672,0.0084362,4.3915,0.012186,0.022861,4.1651e-07,0.09,0.04,0
0.0048195,0.0039358,0.026258,0.0011907,0.0082347,0.0014123,0,0,0.046861,-0.018314,0,0.0073439,0,0,0,0.026345,0.0011036,0.0082347,3.2076,0.011895,0.022539,3.9584e-07,0.1,0.04,0
0.0052854,0.004143,0.0259,0.00099678,0.0080691,0.00095134,0,0,0.046361,-0.018388,0,0.004947,0,0,0,0.025942,0.00095497,0.0080691,2.1795,0.011655,0.022298,3.8024e-07,0.11,0.04,0
0.0057468,0.0043231,0.025615,0.00083312,0.0079343,0.00056105,0,0,0.045969,-0.018463,0,0.0029175,0,0,0,0.025631,0.00081663,0.0079343,1.2929,0.011461,0.022132,3.6887e-07,0.12,0.04,0
0.0062047,0.0044793,0.025395,0.00069092,0.0078259,0.00023256,0,0,0.045681,-0.018551,0,0.0012093,0,0,0,0.0254,0.0006862,0.0078259,0.53738,0.011304,0.02203,3.6101e-07,0.13,0.04,0
0.0066604,0.0046146,0.025235,0.00056449,0.00774,-4.0941e-05,0,0,0.045488,-0.018656,0,-0.00021289,0,0,0,0.025237,0.00056281,0.00774,-0.095928,0.01118,0.021983,3.5602e-07,0.14,0.04,0
0.0071145,0.0047322,0.025127,0.00045043,0.0076733,-0.00026489,0,0,0.04538,-0.01878,0,-0.0013774,0,0,0,0.025131,0.00044661,0.0076733,-0.61506,0.011084,0.021981,3.5336e-07,0.15,0.04,0
0.007568,0.004835,0.025064,0.0003469,0.0076233,-0.00044389,0,0,0.045346,-0.018919,0,-0.0023082,0,0,0,0.025073,0.00033837,0.0076233,-1.0282,0.011011,0.022015,3.5259e-07,0.16,0.04,0
0.0080214,0.004926,0.025039,0.0002531,0.0075877,-0.00058212,0,0,0.045374,-0.01907,0,-0.003027,0,0,0,0.025053,0.00023914,0.0075877,-1.3442,0.01096,0.022077,3.533e-07,0.17,0.04,0
0.0084754,0.0050079,0.025046,0.0001689,0.0075644,-0.00068364,0,0,0.045452,-0.019228,0,-0.0035549,0,0,0,0.025065,0.00014997,0.0075644,-1.5724,0.010926,0.022158,3.5518e-07,0.18,0.04,0
0.0089305,0.0050835,0.025079,9.4393e-05,0.007552,-0.0007525,0,0,0.04557,-0.01939,0,-0.003913,0,0,0,0.025102,7.1642e-05,0.007552,-1.7232,0.010908,0.022254,3.5796e-07,0.19,0.04,0
0.0093868,0.0051551,0.025133,2.9578e-05,0.0075489,-0.00079279,0,0,0.04572,-0.01955,0,-0.0041225,0,0,0,0.025158,4.4575e-06,0.0075489,-1.8069,0.010904,0.022358,3.6143e-07,0.2,0.04,0
0.0098449,0.005225,0.025205,-2.5879e-05,0.0075537,-0.0008085,0,0,0.045893,-0.019707,0,-0.0042042,0,0,0,0.025231,-5.1902e-05,0.0075537,-1.8336,0.010911,0.022467,3.6544e-07,0.21,0.04,0
0.010305,0.0052953,0.02529,-7.2729e-05,0.0075653,-0.00080333,0,0,0.046085,-0.019859,0,-0.0041773,0,0,0,0.025316,-9.8338e-05,0.0075653,-1.8126,0.010928,0.02258,3.6987e-07,0.22,0.04,0
0.010767,0.0053677,0.025387,-0.00011202,0.0075824,-0.00078051,0,0,0.046291,-0.020005,0,-0.0040586,0,0,0,0.025411,-0.00013613,0.0075824,-1.7522,0.010952,0.022694,3.7463e-07,0.23,0.04,0
0.011231,0.0054438,0.025491,-0.00014478,0.0076039,-0.0007427,0,0,0.046507,-0.020147,0,-0.0038621,0,0,0,0.025513,-0.00016658,0.0076039,-1.6588,0.010983,0.02281,3.7964e-07,0.24,0.04,0
0.011697,0.0055248,0.025602,-0.00017176,0.0076289,-0.00069214,0,0,0.046729,-0.020282,0,-0.0035991,0,0,0,0.02562,-0.00019067,0.0076289,-1.5381,0.01102,0.022924,3.8483e-07,0.25,0.04,0
0.012165,0.0056117,0.025715,-0.00019313,0.0076566,-0.0006308,0,0,0.046952,-0.020409,0,-0.0032802,0,0,0,0.025731,-0.00020884,0.0076566,-1.3949,0.011059,0.023037,3.901e-07,0.26,0.04,0
0.012636,0.0057055,0.025829,-0.00020857,0.0076862,-0.00056074,0,0,0.047172,-0.020526,0,-0.0029159,0,0,0,0.025842,-0.00022102,0.0076862,-1.2342,0.011102,0.023145,3.9535e-07,0.27,0.04,0
0.013109,0.0058066,0.025941,-0.00021747,0.0077172,-0.00048428,0,0,0.047383,-0.02063,0,-0.0025183,0,0,0,0.025951,-0.00022681,0.0077172,-1.0613,0.011147,0.023247,4.0045e-07,0.28,0.04,0
0.013583,0.0059153,0.026049,-0.00021925,0.007749,-0.00040409,0,0,0.047581,-0.020718,0,-0.0021013,0,0,0,0.026056,-0.00022582,0.007749,-0.88204,0.011193,0.02334,4.0531e-07,0.29,0.04,0
0.01406,0.0060317,0.026151,-0.0002137,0.0077813,-0.0003231,0,0,0.047762,-0.020787,0,-0.0016801,0,0,0,0.026156,-0.00021798,0.0077813,-0.70283,0.01124,0.023422,4.0984e-07,0.3,0.04,0
0.014539,0.0061557,0.026246,-0.00020112,0.0078134,-0.00024428,0,0,0.047924,-0.020838,0,-0.0012703,0,0,0,0.026248,-0.00020365,0.0078134,-0.52984,0.011286,0.023493,4.1396e-07,0.31,0.04,0
0.015019,0.0062868,0.026332,-0.00018235,0.0078449,-0.00017041,0,0,0.048067,-0.020871,0,-0.00088612,0,0,0,0.026333,-0.00018367,0.0078449,-0.36876,0.011332,0.023553,4.1765e-07,0.32,0.04,0
0.0155,0.0064243,0.02641,-0.00015859,0.0078754,-0.00010385,0,0,0.04819,-0.020888,0,-0.00054005,0,0,0,0.026411,-0.00015917,0.0078754,-0.22437,0.011376,0.023601,4.209e-07,0.33,0.04,0
0.015982,0.0065676,0.026479,-0.00013128,0.0079045,-4.6467e-05,0,0,0.048295,-0.020893,0,-0.00024163,0,0,0,0.02648,-0.00013149,0.0079045,-0.10035,0.011418,0.023641,4.2374e-07,0.34,0.04,0
0.016466,0.0067158,0.026541,-0.00010191,0.0079318,4.8686e-07,0,0,0.048385,-0.020888,0,2.5318e-06,0,0,0,0.026541,-0.000102,0.0079318,0.00083634,0.011457,0.023672,4.262e-07,0.35,0.04,0
0.01695,0.0068679,0.026597,-7.1916e-05,0.0079574,3.6322e-05,0,0,0.048462,-0.020876,0,0.00018888,0,0,0,0.026597,-7.2035e-05,0.0079574,0.077897,0.011494,0.023697,4.2834e-07,0.36,0.04,0
0.017435,0.0070228,0.026646,-4.2598e-05,0.0079811,6.0895e-05,0,0,0.048529,-0.020861,0,0.00031666,0,0,0,0.026646,-4.2787e-05,0.0079811,0.13065,0.011528,0.023718,4.3024e-07,0.37,0.04,0
0.017921,0.0071796,0.026691,-1.5042e-05,0.0080029,7.454e-05,0,0,0.04859,-0.020847,0,0.00038761,0,0,0,0.026692,-1.5287e-05,0.0080029,0.15988,0.01156,0.023736,4.3195e-07,0.38,0.04,0
0.018407,0.0073372,0.026733,9.8957e-06,0.008023,7.7986e-05,0,0,0.048647,-0.020834,0,0.00040553,0,0,0,0.026734,9.6358e-06,0.008023,0.1672,0.011589,0.023754,4.3357e-07,0.39,0.04,0
0.018894,0.0074948,0.026774,3.1591e-05,0.0080416,7.2276e-05,0,0,0.048703,-0.020826,0,0.00037584,0,0,0,0.026774,3.1364e-05,0.0080416,0.15489,0.011616,0.023772,4.3515e-07,0.4,0.04,0
0.019381,0.0076514,0.026813,4.9653e-05,0.0080588,5.8673e-05,0,0,0.048761,-0.020824,0,0.0003051,0,0,0,0.026813,4.9489e-05,0.0080588,0.12568,0.011641,0.023793,4.3676e-07,0.41,0.04,0
0.019869,0.0078062,0.026853,6.3903e-05,0.0080751,3.8575e-05,0,0,0.048823,-0.020829,0,0.00020059,0,0,0,0.026853,6.3806e-05,0.0080751,0.082616,0.011664,0.023817,4.3846e-07,0.42,0.04,0
0.020357,0.0079586,0.026894,7.4359e-05,0.0080906,1.3439e-05,0,0,0.048889,-0.020842,0,6.9882e-05,0,0,0,0.026894,7.4304e-05,0.0080906,0.028867,0.011686,0.023845,4.4029e-07,0.43,0.04,0
0.020847,0.008108,0.026937,8.1204e-05,0.0081055,-1.5303e-05,0,0,0.048962,-0.020863,0,-7.9573e-05,0,0,0,0.026937,8.1142e-05,0.0081055,-0.032442,0.011708,0.023878,4.423e-07,0.44,0.04,0
0.021337,0.0082537,0.026983,8.4756e-05,0.0081203,-4.6298e-05,0,0,0.049043,-0.020892,0,-0.00024075,0,0,0,0.026983,8.4617e-05,0.0081203,-0.098363,0.011729,0.023915,4.4449e-07,0.45,0.04,0
0.021828,0.0083956,0.027031,8.5425e-05,0.008135,-7.8328e-05,0,0,0.04913,-0.020929,0,-0.00040731,0,0,0,0.027032,8.5132e-05,0.008135,-0.16624,0.011751,0.023958,4.469e-07,0.46,0.04,0
0.022319,0.0085331,0.027083,8.3675e-05,0.0081499,-0.00011034,0,0,0.049225,-0.020972,0,-0.00057377,0,0,0,0.027083,8.3155e-05,0.0081499,-0.2338,0.011772,0.024006,4.4951e-07,0.47,0.04,0
0.022812,0.0086661,0.027137,7.9989e-05,0.0081652,-0.00014146,0,0,0.049327,-0.021021,0,-0.00073561,0,0,0,0.027138,7.9176e-05,0.0081652,-0.29915,0.011794,0.024058,4.5232e-07,0.48,0.04,0
0.023306,0.0087944,0.027195,7.4837e-05,0.0081809,-0.00017101,0,0,0.049436,-0.021076,0,-0.00088927,0,0,0,0.027196,7.3682e-05,0.0081809,-0.36083,0.011817,0.024113,4.5533e-07,0.49,0.04,0
0.023801,0.008918,0.027255,6.8654e-05,0.0081971,-0.00019848,0,0,0.049551,-0.021134,0,-0.0010321,0,0,0,0.027257,6.7125e-05,0.0081971,-0.41778,0.01184,0.024173,4.5851e-07,0.5,0.04,0
0.024297,0.0090366,0.027318,6.1823e-05,0.008214,-0.00022351,0,0,0.049671,-0.021196,0,-0.0011623,0,0,0,0.02732,5.9908e-05,0.008214,-0.46929,0.011865,0.024235,4.6186e-07,0.51,0.04,0
0.024794,0.0091505,0.027384,5.4671e-05,0.0082315,-0.0002459,0,0,0.049796,-0.02126,0,-0.0012787,0,0,0,0.027386,5.2374e-05,0.0082315,-0.51494,0.01189,0.024299,4.6535e-07,0.52,0.04,0
0.025293,0.0092596,0.027451,4.7462e-05,0.0082496,-0.00026556,0,0,0.049924,-0.021326,0,-0.0013809,0,0,0,0.027454,4.4802e-05,0.0082496,-0.5546,0.011916,0.024366,4.6896e-07,0.53,0.04,0
0.025793,0.0093639,0.027521,4.0401e-05,0.0082683,-0.00028248,0,0,0.050056,-0.021392,0,-0.0014689,0,0,0,0.027524,3.7409e-05,0.0082683,-0.58831,0.011943,0.024434,4.7268e-07,0.54,0.04,0
0.026294,0.0094636,0.027591,3.3639e-05,0.0082875,-0.00029673,0,0,0.05019,-0.02146,0,-0.001543,0,0,0,0.027595,3.0354e-05,0.0082875,-0.61627,0.011971,0.024502,4.7649e-07,0.55,0.04,0
0.026796,0.0095587,0.027663,2.7278e-05,0.0083072,-0.00030844,0,0,0.050326,-0.021528,0,-0.0016039,0,0,0,0.027667,2.3745e-05,0.0083072,-0.63878,0.011999,0.024572,4.8037e-07,0.56,0.04,0
0.0273,0.0096495,0.027736,2.1383e-05,0.0083274,-0.00031776,0,0,0.050464,-0.021596,0,-0.0016524,0,0,0,0.02774,1.7648e-05,0.0083274,-0.65623,0.012028,0.024642,4.8431e-07,0.57,0.04,0
0.027806,0.009736,0.02781,1.5985e-05,0.0083478,-0.00032487,0,0,0.050602,-0.021663,0,-0.0016893,0,0,0,0.027814,1.2096e-05,0.0083478,-0.66902,0.012058,0.024712,4.8829e-07,0.58,0.04,0
0.028312,0.0098184,0.027884,1.1091e-05,0.0083686,-0.00032996,0,0,0.050741,-0.021729,0,-0.0017158,0,0,0,0.027888,7.0929e-06,0.0083686,-0.67757,0.012088,0.024782,4.923e-07,0.59,0.04,0
0.028821,0.0098968,0.027958,6.6899e-06,0.0083895,-0.0003332,0,0,0.050879,-0.021795,0,-0.0017326,0,0,0,0.027962,2.626e-06,0.0083895,-0.68232,0.012118,0.024851,4.9633e-07,0.6,0.04,0
0.02933,0.0099714,0.028033,2.7578e-06,0.0084106,-0.00033478,0,0,0.051017,-0.02186,0,-0.0017409,0,0,0,0.028037,-1.332e-06,0.0084106,-0.68367,0.012149,0.024921,5.0036e-07,0.61,0.04,0
0.029841,0.010042,0.028106,-7.3656e-07,0.0084317,-0.00033487,0,0,0.051154,-0.021924,0,-0.0017413,0,0,0,0.02811,-4.8164e-06,0.0084317,-0.68199,0.012179,0.024989,5.0439e-07,0.62,0.04,0
0.030353,0.01011,0.02818,-3.829e-06,0.0084528,-0.00033364,0,0,0.05129,-0.021987,0,-0.0017349,0,0,0,0.028184,-7.8672e-06,0.0084528,-0.67765,0.01221,0.025057,5.084e-07,0.63,0.04,0
0.030867,0.010173,0.028252,-6.5567e-06,0.0084737,-0.00033122,0,0,0.051424,-0.022049,0,-0.0017223,0,0,0,0.028256,-1.0526e-05,0.0084737,-0.67096,0.01224,0.025123,5.1239e-07,0.64,0.04,0
0.031382,0.010234,0.028324,-8.9566e-06,0.0084946,-0.00032775,0,0,0.051557,-0.022109,0,-0.0017043,0,0,0,0.028328,-1.2833e-05,0.0084946,-0.66222,0.01227,0.025189,5.1635e-07,0.65,0.04,0
0.031898,0.010292,0.028395,-1.1064e-05,0.0085152,-0.00032336,0,0,0.051688,-0.022168,0,-0.0016815,0,0,0,0.028399,-1.4827e-05,0.0085152,-0.65168,0.0123,0.025253,5.2026e-07,0.66,0.04,0
0.032415,0.010346,0.028465,-1.2911e-05,0.0085355,-0.00031815,0,0,0.051816,-0.022226,0,-0.0016544,0,0,0,0.028468,-1.6545e-05,0.0085355,-0.63958,0.012329,0.025316,5.2412e-07,0.67,0.04,0
0.032934,0.010398,0.028533,-1.4529e-05,0.0085556,-0.00031221,0,0,0.051942,-0.022282,0,-0.0016235,0,0,0,0.028537,-1.802e-05,0.0085556,-0.62612,0.012358,0.025378,5.2793e-07,0.68,0.04,0
0.033454,0.010447,0.0286,-1.5943e-05,0.0085753,-0.00030564,0,0,0.052065,-0.022337,0,-0.0015893,0,0,0,0.028604,-1.9281e-05,0.0085753,-0.61149,0.012387,0.025439,5.3167e-07,0.69,0.04,0
0.033975,0.010493,0.028666,-1.7177e-05,0.0085946,-0.00029851,0,0,0.052185,-0.022391,0,-0.0015522,0,0,0,0.028669,-2.0354e-05,0.0085946,-0.59585,0.012414,0.025498,5.3535e-07,0.7,0.04,0
0.034498,0.010537,0.02873,-1.8253e-05,0.0086134,-0.00029088,0,0,0.052302,-0.022442,0,-0.0015126,0,0,0,0.028733,-2.1263e-05,0.0086134,-0.57933,0.012442,0.025555,5.3895e-07,0.71,0.04,0
0.035021,0.010578,0.028792,-1.9188e-05,0.0086318,-0.00028283,0,0,0.052416,-0.022493,0,-0.0014707,0,0,0,0.028795,-2.2028e-05,0.0086318,-0.56207,0.012468,0.025611,5.4246e-07,0.72,0.04,0
0.035546,0.010617,0.028853,-2e-05,0.0086498,-0.0002744,0,0,0.052527,-0.022541,0,-0.0014269,0,0,0,0.028855,-2.2667e-05,0.0086498,-0.54417,0.012494,0.025665,5.4589e-07,0.73,0.04,0
0.036072,0.010654,0.028911,-2.0701e-05,0.0086672,-0.00026564,0,0,0.052635,-0.022588,0,-0.0013813,0,0,0,0.028914,-2.3197e-05,0.0086672,-0.52573,0.012519,0.025718,5.4923e-07,0.74,0.04,0
0.036599,0.010688,0.028968,-2.1306e-05,0.008684,-0.00025659,0,0,0.052739,-0.022634,0,-0.0013343,0,0,0,0.02897,-2.363e-05,0.008684,-0.50683,0.012544,0.025768,5.5247e-07,0.75,0.04,0
0.037127,0.010721,0.029023,-2.1824e-05,0.0087003,-0.0002473,0,0,0.052839,-0.022678,0,-0.0012859,0,0,0,0.029025,-2.3979e-05,0.0087003,-0.48755,0.012567,0.025817,5.5561e-07,0.76,0.04,0
0.037656,0.010752,0.029076,-2.2265e-05,0.0087161,-0.00023779,0,0,0.052935,-0.02272,0,-0.0012365,0,0,0,0.029078,-2.4255e-05,0.0087161,-0.46796,0.01259,0.025864,5.5865e-07,0.77,0.04,0
0.038185,0.010781,0.029127,-2.264e-05,0.0087312,-0.0002281,0,0,0.053028,-0.02276,0,-0.0011861,0,0,0,0.029129,-2.4467e-05,0.0087312,-0.44812,0.012612,0.02591,5.6157e-07,0.78,0.04,0
0.038716,0.010808,0.029175,-2.2954e-05,0.0087457,-0.00021826,0,0,0.053117,-0.022799,0,-0.0011349,0,0,0,0.029177,-2.4625e-05,0.0087457,-0.42807,0.012633,0.025953,5.6439e-07,0.79,0.04,0
0.039248,0.010833,0.029222,-2.3216e-05,0.0087596,-0.00020828,0,0,0.053202,-0.022835,0,-0.0010831,0,0,0,0.029224,-2.4735e-05,0.0087596,-0.40786,0.012653,0.025994,5.6709e-07,0.8,0.04,0
0.03978,0.010857,0.029266,-2.3432e-05,0.0087729,-0.0001982,0,0,0.053283,-0.022871,0,-0.0010306,0,0,0,0.029268,-2.4806e-05,0.0087729,-0.38753,0.012672,0.026034,5.6968e-07,0.81,0.04,0
0.040314,0.010879,0.029309,-2.3608e-05,0.0087855,-0.00018802,0,0,0.05336,-0.022904,0,-0.00097771,0,0,0,0.02931,-2.4843e-05,0.0087855,-0.3671,0.01269,0.026071,5.7214e-07,0.82,0.04,0
0.040847,0.0109,0.029349,-2.3748e-05,0.0087975,-0.00017777,0,0,0.053433,-0.022935,0,-0.0009244,0,0,0,0.02935,-2.4851e-05,0.0087975,-0.34661,0.012708,0.026107,5.7448e-07,0.83,0.04,0
0.041382,0.010919,0.029387,-2.3859e-05,0.0088089,-0.00016746,0,0,0.053502,-0.022965,0,-0.00087077,0,0,0,0.029388,-2.4837e-05,0.0088089,-0.32609,0.012724,0.02614,5.767e-07,0.84,0.04,0
0.041918,0.010936,0.029422,-2.3944e-05,0.0088195,-0.00015709,0,0,0.053567,-0.022993,0,-0.00081689,0,0,0,0.029423,-2.4804e-05,0.0088195,-0.30554,0.012739,0.026172,5.7879e-07,0.85,0.04,0
0.042454,0.010953,0.029456,-2.4008e-05,0.0088295,-0.00014669,0,0,0.053628,-0.023019,0,-0.0007628,0,0,0,0.029456,-2.4757e-05,0.0088295,-0.285,0.012754,0.026201,5.8075e-07,0.86,0.04,0
0.04299,0.010968,0.029487,-2.4053e-05,0.0088388,-0.00013626,0,0,0.053685,-0.023043,0,-0.00070857,0,0,0,0.029487,-2.4699e-05,0.0088388,-0.26446,0.012767,0.026229,5.8258e-07,0.87,0.04,0
0.043527,0.010982,0.029516,-2.4083e-05,0.0088475,-0.00012581,0,0,0.053737,-0.023066,0,-0.00065422,0,0,0,0.029516,-2.4634e-05,0.0088475,-0.24394,0.01278,0.026254,5.8428e-07,0.88,0.04,0
0.044065,0.010994,0.029542,-2.4102e-05,0.0088554,-0.00011534,0,0,0.053786,-0.023087,0,-0.00059979,0,0,0,0.029543,-2.4564e-05,0.0088554,-0.22344,0.012791,0.026278,5.8585e-07,0.89,0.04,0
0.044603,0.011005,0.029566,-2.4111e-05,0.0088627,-0.00010486,0,0,0.05383,-0.023106,0,-0.0005453,0,0,0,0.029567,-2.4493e-05,0.0088627,-0.20298,0.012802,0.026299,5.8729e-07,0.9,0.04,0
0.045141,0.011016,0.029588,-2.4112e-05,0.0088693,-9.438e-05,0,0,0.05387,-0.023123,0,-0.00049077,0,0,0,0.029589,-2.4422e-05,0.0088693,-0.18255,0.012811,0.026319,5.8859e-07,0.91,0.04,0
0.04568,0.011025,0.029608,-2.4109e-05,0.0088752,-8.3891e-05,0,0,0.053905,-0.023138,0,-0.00043623,0,0,0,0.029608,-2.4354e-05,0.0088752,-0.16216,0.01282,0.026336,5.8976e-07,0.92,0.04,0
0.04622,0.011032,0.029625,-2.4102e-05,0.0088804,-7.3401e-05,0,0,0.053937,-0.023152,0,-0.00038168,0,0,0,0.029626,-2.429e-05,0.0088804,-0.1418,0.012827,0.026351,5.9079e-07,0.93,0.04,0
0.046759,0.011039,0.02964,-2.4094e-05,0.0088849,-6.291e-05,0,0,0.053964,-0.023163,0,-0.00032713,0,0,0,0.029641,-2.4232e-05,0.0088849,-0.12147,0.012834,0.026364,5.9169e-07,0.94,0.04,0
0.047299,0.011045,0.029653,-2.4084e-05,0.0088887,-5.2421e-05,0,0,0.053987,-0.023173,0,-0.00027259,0,0,0,0.029653,-2.4181e-05,0.0088887,-0.10117,0.012839,0.026376,5.9245e-07,0.95,0.04,0
0.047839,0.01105,0.029664,-2.4075e-05,0.0088918,-4.1934e-05,0,0,0.054006,-0.023181,0,-0.00021806,0,0,0,0.029664,-2.4138e-05,0.0088918,-0.080906,0.012844,0.026385,5.9307e-07,0.96,0.04,0
0.048379,0.011053,0.029672,-2.4067e-05,0.0088943,-3.1448e-05,0,0,0.054021,-0.023188,0,-0.00016353,0,0,0,0.029672,-2.4103e-05,0.0088943,-0.060659,0.012847,0.026392,5.9355e-07,0.97,0.04,0
0.048919,0.011056,0.029677,-2.4061e-05,0.008896,-2.0965e-05,0,0,0.054032,-0.023192,0,-0.00010902,0,0,0,0.029677,-2.4078e-05,0.008896,-0.04043,0.01285,0.026397,5.939e-07,0.98,0.04,0
0.04946,0.011057,0.029681,-2.4057e-05,0.0088971,-8.0199e-06,0,0,0.054038,-0.023195,0,-4.1703e-05,0,0,0,0.029681,-2.4064e-05,0.0088971,-0.015463,0.012851,0.0264,5.941e-07,0.99,0.04,0
0.04973,0.011058,0.029682,-2.4056e-05,0.0088974,-3.1673e-07,0,0,0.05404,-0.023196,0,-1.647e-06,0,0,0,0.029682,-2.406e-05,0.0088974,-0.00060755,0.012852,0.026401,5.9417e-07,1,0.04,0
0.00020998,0.00022608,0.028203,0.011319,0.011856,0.0086264,0,0,0.042501,-0.0013986,0,0.044857,0,0,0,0.031835,0.0076865,0.011856,22.817,0.017126,0.022359,5.0843e-07,0,0.05,0
0.00042501,0.00045602,0.028256,0.010471,0.011618,0.0085249,0,0,0.043258,-0.002982,0,0.04433,0,0,0,0.031694,0.0070323,0.011618,21.934,0.016782,0.022724,5.2141e-07,0.01,0.05,0
0.00086516,0.00091898,0.028446,0.0087348,0.011154,0.008189,0,0,0.044959,-0.0062908,0,0.042583,0,0,0,0.031426,0.0057551,0.011154,19.918,0.016112,0.023447,5.4596e-07,0.02,0.05,0
0.0013242,0.0013792,0.028643,0.0070418,0.010705,0.0075574,0,0,0.046638,-0.0095255,0,0.039298,0,0,0,0.031053,0.0046321,0.010705,17.538,0.015463,0.023972,5.5757e-07,0.03,0.05,0
0.0017979,0.0018208,0.028661,0.0055921,0.010276,0.0066805,0,0,0.047801,-0.012178,0,0.034739,0,0,0,0.030485,0.0037676,0.010276,15.071,0.014843,0.024134,5.4896e-07,0.04,0.05,0
0.0022802,0.0022327,0.028493,0.0044542,0.0098841,0.005709,0,0,0.048383,-0.014118,0,0.029687,0,0,0,0.029807,0.0031401,0.0098841,12.721,0.014277,0.024017,5.2704e-07,0.05,0.05,0
0.0027656,0.0026094,0.028182,0.0035895,0.0095314,0.0047536,0,0,0.048491,-0.015449,0,0.024719,0,0,0,0.029092,0.0026795,0.0095314,10.575,0.013768,0.023741,4.9923e-07,0.06,0.05,0
0.00325,0.002949,0.02779,0.002933,0.0092169,0.0038715,0,0,0.04829,-0.016338,0,0.020132,0,0,0,0.028398,0.0023252,0.0092169,8.6525,0.013313,0.023402,4.7089e-07,0.07,0.05,0
0.0037314,0.0032519,0.027372,0.0024279,0.00894,0.0030831,0,0,0.047924,-0.016932,0,0.016032,0,0,0,0.027763,0.0020375,0.00894,6.9413,0.012913,0.023063,4.4498e-07,0.08,0.05,0
0.0042085,0.0035199,0.026965,0.0020304,0.0086986,0.0023899,0,0,0.047493,-0.017337,0,0.012428,0,0,0,0.027204,0.0017918,0.0086986,5.4236,0.012565,0.022759,4.2277e-07,0.09,0.05,0
0.0046812,0.0037555,0.02659,0.0017091,0.0084898,0.0017859,0,0,0.047061,-0.01763,0,0.0092868,0,0,0,0.026727,0.0015727,0.0084898,4.0825,0.012263,0.022508,4.0453e-07,0.1,0.05,0
0.0051497,0.0039612,0.026259,0.0014416,0.0083101,0.0012629,0,0,0.046666,-0.017858,0,0.0065673,0,0,0,0.026329,0.0013709,0.0083101,2.9042,0.012003,0.022314,3.9007e-07,0.11,0.05,0
0.0056145,0.00414,0.025975,0.0012127,0.0081562,0.00081311,0,0,0.046328,-0.018053,0,0.0042282,0,0,0,0.026006,0.0011811,0.0081562,1.8778,0.011781,0.022176,3.7898e-07,0.12,0.05,0
0.0060763,0.0042949,0.025738,0.0010116,0.008025,0.00042952,0,0,0.046055,-0.018235,0,0.0022335,0,0,0,0.025749,0.0010007,0.008025,0.9946,0.011592,0.022091,3.7079e-07,0.13,0.05,0
0.0065356,0.0044289,0.025547,0.00083168,0.0079137,0.00010629,0,0,0.045848,-0.018413,0,0.00055271,0,0,0,0.02555,0.00082888,0.0079137,0.2466,0.011431,0.02205,3.6504e-07,0.14,0.05,0
0.0069932,0.004545,0.025398,0.00066867,0.0078201,-0.00016166,0,0,0.045704,-0.018594,0,-0.00084065,0,0,0,0.025401,0.00066609,0.0078201,-0.37403,0.011296,0.022046,3.6131e-07,0.15,0.05,0
0.0074497,0.0046462,0.025287,0.00052036,0.0077423,-0.00037895,0,0,0.045617,-0.018777,0,-0.0019705,0,0,0,0.025294,0.00051363,0.0077423,-0.87577,0.011183,0.022072,3.5919e-07,0.16,0.05,0
0.0079056,0.0047356,0.02521,0.0003859,0.0076786,-0.00055001,0,0,0.04558,-0.018961,0,-0.0028601,0,0,0,0.025222,0.00037319,0.0076786,-1.268,0.011091,0.022121,3.5838e-07,0.17,0.05,0
0.0083613,0.0048158,0.025161,0.00026524,0.007628,-0.00067935,0,0,0.045587,-0.019143,0,-0.0035326,0,0,0,0.02518,0.00024645,0.007628,-1.5614,0.011018,0.022184,3.5858e-07,0.18,0.05,0
0.0088173,0.0048897,0.025139,0.00015868,0.0075893,-0.00077166,0,0,0.045629,-0.01932,0,-0.0040126,0,0,0,0.025163,0.00013475,0.0075893,-1.7673,0.010962,0.022258,3.5959e-07,0.19,0.05,0
0.0092739,0.0049597,0.025139,6.6293e-05,0.0075616,-0.00083175,0,0,0.045702,-0.019488,0,-0.0043251,0,0,0,0.025167,3.8681e-05,0.0075616,-1.8977,0.010922,0.022338,3.6125e-07,0.2,0.05,0
0.0097313,0.0050281,0.025159,-1.2453e-05,0.0075441,-0.00086437,0,0,0.0458,-0.019647,0,-0.0044947,0,0,0,0.025189,-4.2137e-05,0.0075441,-1.9644,0.010897,0.022422,3.6347e-07,0.21,0.05,0
0.01019,0.0050969,0.025198,-7.8842e-05,0.0075358,-0.00087386,0,0,0.045922,-0.019798,0,-0.004544,0,0,0,0.025228,-0.00010908,0.0075358,-1.9779,0.010885,0.022511,3.6621e-07,0.22,0.05,0
0.01065,0.0051679,0.025253,-0.00013471,0.0075356,-0.00086379,0,0,0.046066,-0.019943,0,-0.0044917,0,0,0,0.025283,-0.00016417,0.0075356,-1.9469,0.010885,0.022603,3.6944e-07,0.23,0.05,0
0.011111,0.0052425,0.025324,-0.00018191,0.0075426,-0.00083685,0,0,0.046232,-0.020084,0,-0.0043516,0,0,0,0.025352,-0.00020951,0.0075426,-1.8779,0.010895,0.022701,3.7317e-07,0.24,0.05,0
0.011574,0.0053222,0.025408,-0.00022171,0.0075559,-0.00079497,0,0,0.046416,-0.020222,0,-0.0041339,0,0,0,0.025433,-0.00024658,0.0075559,-1.7758,0.010914,0.022803,3.7734e-07,0.25,0.05,0
0.01204,0.0054079,0.025504,-0.00025438,0.0075748,-0.00073974,0,0,0.046615,-0.020356,0,-0.0038467,0,0,0,0.025525,-0.00027591,0.0075748,-1.6447,0.010941,0.022908,3.819e-07,0.26,0.05,0
0.012507,0.0055004,0.025608,-0.00027925,0.0075985,-0.0006729,0,0,0.046823,-0.020482,0,-0.0034991,0,0,0,0.025625,-0.00029709,0.0075985,-1.4891,0.010976,0.023014,3.8673e-07,0.27,0.05,0
0.012976,0.0056004,0.025717,-0.00029508,0.0076266,-0.00059671,0,0,0.047035,-0.020596,0,-0.0031029,0,0,0,0.025731,-0.00030916,0.0076266,-1.3145,0.011016,0.023118,3.917e-07,0.28,0.05,0
0.013447,0.0057082,0.025829,-0.00030073,0.0076584,-0.00051414,0,0,0.047243,-0.020694,0,-0.0026735,0,0,0,0.025839,-0.00031125,0.0076584,-1.1278,0.011062,0.023216,3.9668e-07,0.29,0.05,0
0.013921,0.005824,0.02594,-0.00029569,0.0076934,-0.00042862,0,0,0.047442,-0.020772,0,-0.0022288,0,0,0,0.025948,-0.00030308,0.0076934,-0.93661,0.011113,0.023305,4.0154e-07,0.3,0.05,0
0.014396,0.0059474,0.026049,-0.00028031,0.0077307,-0.00034376,0,0,0.047629,-0.020829,0,-0.0017876,0,0,0,0.026054,-0.00028517,0.0077307,-0.74866,0.011167,0.023386,4.0619e-07,0.31,0.05,0
0.014873,0.0060781,0.026154,-0.00025581,0.0077696,-0.00026297,0,0,0.0478,-0.020866,0,-0.0013674,0,0,0,0.026157,-0.00025875,0.0077696,-0.57105,0.011223,0.023456,4.1057e-07,0.32,0.05,0
0.015352,0.0062155,0.026254,-0.00022392,0.007809,-0.00018915,0,0,0.047957,-0.020886,0,-0.00098358,0,0,0,0.026256,-0.00022555,0.007809,-0.40976,0.01128,0.023517,4.1465e-07,0.33,0.05,0
0.015833,0.0063588,0.026348,-0.0001867,0.0078484,-0.0001246,0,0,0.048099,-0.020891,0,-0.00064794,0,0,0,0.026349,-0.00018752,0.0078484,-0.26941,0.011337,0.023569,4.1843e-07,0.34,0.05,0
0.016314,0.006507,0.026436,-0.00014628,0.0078869,-7.0958e-05,0,0,0.048227,-0.020886,0,-0.00036898,0,0,0,0.026436,-0.00014665,0.0078869,-0.1532,0.011392,0.023614,4.2191e-07,0.35,0.05,0
0.016797,0.0066592,0.026518,-0.0001047,0.0079241,-2.9174e-05,0,0,0.048345,-0.020875,0,-0.00015171,0,0,0,0.026519,-0.00010488,0.0079241,-0.062957,0.011446,0.023654,4.2514e-07,0.36,0.05,0
0.017281,0.0068142,0.026596,-6.3815e-05,0.0079595,4.0994e-07,0,0,0.048454,-0.020861,0,2.1317e-06,0,0,0,0.026596,-6.3932e-05,0.0079595,0.0007839,0.011497,0.02369,4.2815e-07,0.37,0.05,0
0.017766,0.0069711,0.026668,-2.5183e-05,0.007993,1.8012e-05,0,0,0.048556,-0.020847,0,9.3662e-05,0,0,0,0.026668,-2.5293e-05,0.007993,0.038628,0.011545,0.023724,4.3101e-07,0.38,0.05,0
0.018252,0.0071289,0.026738,9.9469e-06,0.0080242,2.4317e-05,0,0,0.048655,-0.020837,0,0.00012645,0,0,0,0.026738,9.8386e-06,0.0080242,0.052152,0.011591,0.023757,4.3376e-07,0.39,0.05,0
0.018739,0.0072865,0.026804,4.0655e-05,0.0080534,2.0384e-05,0,0,0.048751,-0.020833,0,0.000106,0,0,0,0.026804,4.0558e-05,0.0080534,0.043717,0.011633,0.023792,4.3646e-07,0.4,0.05,0
0.019227,0.0074431,0.026868,6.6339e-05,0.0080804,7.5512e-06,0,0,0.048849,-0.020837,0,3.9266e-05,0,0,0,0.026868,6.6255e-05,0.0080804,0.016275,0.011672,0.023828,4.3916e-07,0.41,0.05,0
0.019716,0.0075978,0.026932,8.6703e-05,0.0081055,-1.266e-05,0,0,0.048948,-0.020849,0,-6.583e-05,0,0,0,0.026932,8.6613e-05,0.0081055,-0.026834,0.011708,0.023868,4.4192e-07,0.42,0.05,0
0.020206,0.00775,0.026995,0.00010174,0.0081289,-3.8639e-05,0,0,0.049051,-0.020871,0,-0.00020093,0,0,0,0.026995,0.00010159,0.0081289,-0.082082,0.011742,0.023912,4.4477e-07,0.43,0.05,0
0.020697,0.0078991,0.027058,0.00011167,0.0081508,-6.8784e-05,0,0,0.049158,-0.020902,0,-0.00035768,0,0,0,0.027058,0.00011141,0.0081508,-0.14596,0.011773,0.023961,4.4773e-07,0.44,0.05,0
0.021189,0.0080446,0.027121,0.00011695,0.0081714,-0.00010157,0,0,0.049269,-0.020942,0,-0.00052818,0,0,0,0.027122,0.00011647,0.0081714,-0.21516,0.011803,0.024013,4.5082e-07,0.45,0.05,0
0.021683,0.008186,0.027186,0.00011814,0.0081911,-0.00013563,0,0,0.049386,-0.02099,0,-0.00070528,0,0,0,0.027186,0.00011736,0.0081911,-0.2867,0.011832,0.02407,4.5405e-07,0.46,0.05,0
0.022177,0.008323,0.027251,0.00011589,0.0082101,-0.00016977,0,0,0.049507,-0.021045,0,-0.0008828,0,0,0,0.027252,0.00011473,0.0082101,-0.35801,0.011859,0.024131,4.5741e-07,0.47,0.05,0
0.022673,0.0084555,0.027318,0.0001109,0.0082285,-0.00020301,0,0,0.049632,-0.021106,0,-0.0010557,0,0,0,0.027319,0.00010928,0.0082285,-0.42703,0.011886,0.024195,4.609e-07,0.48,0.05,0
0.02317,0.0085832,0.027385,0.00010382,0.0082467,-0.00023459,0,0,0.04976,-0.021171,0,-0.0012199,0,0,0,0.027387,0.00010171,0.0082467,-0.49213,0.011912,0.024261,4.645e-07,0.49,0.05,0
0.023668,0.0087061,0.027454,9.5275e-05,0.0082647,-0.00026393,0,0,0.049891,-0.02124,0,-0.0013725,0,0,0,0.027456,9.2632e-05,0.0082647,-0.55215,0.011938,0.02433,4.682e-07,0.5,0.05,0
0.024168,0.0088241,0.027523,8.5803e-05,0.0082827,-0.00029065,0,0,0.050025,-0.021312,0,-0.0015114,0,0,0,0.027526,8.2629e-05,0.0082827,-0.60632,0.011964,0.0244,4.7198e-07,0.51,0.05,0
0.024669,0.0089373,0.027593,7.5863e-05,0.0083007,-0.00031452,0,0,0.050161,-0.021385,0,-0.0016355,0,0,0,0.027597,7.2175e-05,0.0083007,-0.65421,0.01199,0.024471,4.7582e-07,0.52,0.05,0
0.025171,0.0090456,0.027664,6.5826e-05,0.0083189,-0.00033542,0,0,0.050297,-0.021458,0,-0.0017442,0,0,0,0.027668,6.1659e-05,0.0083189,-0.69565,0.012016,0.024543,4.7972e-07,0.53,0.05,0
0.025674,0.0091493,0.027735,5.5981e-05,0.0083373,-0.00035335,0,0,0.050434,-0.021532,0,-0.0018374,0,0,0,0.02774,5.1381e-05,0.0083373,-0.73071,0.012043,0.024615,4.8365e-07,0.54,0.05,0
0.02618,0.0092483,0.027807,4.6539e-05,0.0083559,-0.00036839,0,0,0.050572,-0.021604,0,-0.0019156,0,0,0,0.027812,4.1563e-05,0.0083559,-0.7596,0.01207,0.024686,4.8761e-07,0.55,0.05,0
0.026686,0.0093427,0.027878,3.7646e-05,0.0083747,-0.00038066,0,0,0.050709,-0.021676,0,-0.0019795,0,0,0,0.027883,3.2355e-05,0.0083747,-0.78266,0.012097,0.024758,4.9157e-07,0.56,0.05,0
0.027194,0.0094328,0.02795,2.9389e-05,0.0083937,-0.00039034,0,0,0.050846,-0.021747,0,-0.0020298,0,0,0,0.027955,2.3848e-05,0.0083937,-0.80026,0.012124,0.024828,4.9555e-07,0.57,0.05,0
0.027703,0.0095186,0.028021,2.1816e-05,0.0084129,-0.0003976,0,0,0.050981,-0.021817,0,-0.0020675,0,0,0,0.028027,1.6087e-05,0.0084129,-0.81286,0.012152,0.024898,4.9951e-07,0.58,0.05,0
0.028213,0.0096003,0.028092,1.4936e-05,0.0084322,-0.00040264,0,0,0.051116,-0.021885,0,-0.0020937,0,0,0,0.028098,9.0808e-06,0.0084322,-0.82089,0.01218,0.024967,5.0347e-07,0.59,0.05,0
0.028725,0.0096781,0.028163,8.7358e-06,0.0084515,-0.00040566,0,0,0.05125,-0.021951,0,-0.0021094,0,0,0,0.028169,2.8108e-06,0.0084515,-0.8248,0.012208,0.025035,5.074e-07,0.6,0.05,0
0.029238,0.009752,0.028233,3.183e-06,0.0084709,-0.00040685,0,0,0.051382,-0.022016,0,-0.0021156,0,0,0,0.028239,-2.759e-06,0.0084709,-0.82502,0.012236,0.025102,5.1132e-07,0.61,0.05,0
0.029753,0.0098222,0.028303,-1.7647e-06,0.0084903,-0.00040639,0,0,0.051513,-0.022079,0,-0.0021132,0,0,0,0.028309,-7.6763e-06,0.0084903,-0.82193,0.012264,0.025168,5.152e-07,0.62,0.05,0
0.030269,0.0098889,0.028372,-6.1555e-06,0.0085097,-0.00040445,0,0,0.051641,-0.022141,0,-0.0021031,0,0,0,0.028378,-1.1995e-05,0.0085097,-0.81592,0.012292,0.025232,5.1904e-07,0.63,0.05,0
0.030786,0.0099522,0.02844,-1.004e-05,0.0085289,-0.00040119,0,0,0.051768,-0.022201,0,-0.0020862,0,0,0,0.028445,-1.5771e-05,0.0085289,-0.80732,0.01232,0.025295,5.2285e-07,0.64,0.05,0
0.031304,0.010012,0.028507,-1.3469e-05,0.008548,-0.00039675,0,0,0.051893,-0.02226,0,-0.0020631,0,0,0,0.028512,-1.9059e-05,0.008548,-0.79643,0.012347,0.025357,5.2661e-07,0.65,0.05,0
0.031823,0.010069,0.028573,-1.6489e-05,0.0085668,-0.00039126,0,0,0.052015,-0.022317,0,-0.0020346,0,0,0,0.028578,-2.1913e-05,0.0085668,-0.78354,0.012374,0.025418,5.3031e-07,0.66,0.05,0
0.032344,0.010123,0.028637,-1.9146e-05,0.0085855,-0.00038484,0,0,0.052135,-0.022372,0,-0.0020012,0,0,0,0.028643,-2.4381e-05,0.0085855,-0.76888,0.012401,0.025478,5.3396e-07,0.67,0.05,0
0.032866,0.010174,0.028701,-2.148e-05,0.0086038,-0.00037758,0,0,0.052252,-0.022426,0,-0.0019634,0,0,0,0.028706,-2.6508e-05,0.0086038,-0.75268,0.012428,0.025536,5.3755e-07,0.68,0.05,0
0.033389,0.010223,0.028763,-2.3527e-05,0.0086219,-0.0003696,0,0,0.052367,-0.022478,0,-0.0019219,0,0,0,0.028768,-2.8334e-05,0.0086219,-0.73513,0.012454,0.025592,5.4107e-07,0.69,0.05,0
0.033913,0.010268,0.028824,-2.532e-05,0.0086395,-0.00036096,0,0,0.052479,-0.022529,0,-0.001877,0,0,0,0.028828,-2.9896e-05,0.0086395,-0.71641,0.012479,0.025647,5.4452e-07,0.7,0.05,0
0.034439,0.010312,0.028883,-2.6888e-05,0.0086569,-0.00035175,0,0,0.052588,-0.022578,0,-0.0018291,0,0,0,0.028887,-3.1225e-05,0.0086569,-0.69668,0.012504,0.025701,5.479e-07,0.71,0.05,0
0.034965,0.010352,0.028941,-2.8257e-05,0.0086738,-0.00034203,0,0,0.052694,-0.022625,0,-0.0017786,0,0,0,0.028945,-3.2349e-05,0.0086738,-0.67606,0.012529,0.025753,5.5119e-07,0.72,0.05,0
0.035493,0.010391,0.028997,-2.9448e-05,0.0086902,-0.00033186,0,0,0.052797,-0.022671,0,-0.0017257,0,0,0,0.029001,-3.3293e-05,0.0086902,-0.6547,0.012553,0.025803,5.544e-07,0.73,0.05,0
0.036021,0.010427,0.029051,-3.0481e-05,0.0087062,-0.00032131,0,0,0.052897,-0.022715,0,-0.0016708,0,0,0,0.029055,-3.4079e-05,0.0087062,-0.63268,0.012576,0.025852,5.5753e-07,0.74,0.05,0
0.036551,0.010461,0.029104,-3.1375e-05,0.0087217,-0.00031041,0,0,0.052993,-0.022758,0,-0.0016141,0,0,0,0.029107,-3.4727e-05,0.0087217,-0.61011,0.012598,0.025899,5.6056e-07,0.75,0.05,0
0.037081,0.010494,0.029155,-3.2144e-05,0.0087367,-0.00029921,0,0,0.053086,-0.022799,0,-0.0015559,0,0,0,0.029158,-3.5253e-05,0.0087367,-0.58708,0.01262,0.025944,5.6349e-07,0.76,0.05,0
0.037612,0.010524,0.029204,-3.2802e-05,0.0087512,-0.00028776,0,0,0.053176,-0.022838,0,-0.0014964,0,0,0,0.029206,-3.5673e-05,0.0087512,-0.56366,0.012641,0.025988,5.6633e-07,0.77,0.05,0
0.038145,0.010552,0.029251,-3.3361e-05,0.0087652,-0.00027608,0,0,0.053262,-0.022876,0,-0.0014356,0,0,0,0.029253,-3.6001e-05,0.0087652,-0.53992,0.012661,0.02603,5.6906e-07,0.78,0.05,0
0.038678,0.010579,0.029296,-3.3834e-05,0.0087786,-0.00026421,0,0,0.053345,-0.022912,0,-0.0013739,0,0,0,0.029298,-3.6248e-05,0.0087786,-0.51591,0.01268,0.02607,5.7169e-07,0.79,0.05,0
0.039211,0.010604,0.029339,-3.423e-05,0.0087914,-0.00025218,0,0,0.053424,-0.022947,0,-0.0013114,0,0,0,0.029341,-3.6427e-05,0.0087914,-0.4917,0.012699,0.026108,5.7421e-07,0.8,0.05,0
0.039746,0.010628,0.02938,-3.4559e-05,0.0088037,-0.00024001,0,0,0.053499,-0.022979,0,-0.0012481,0,0,0,0.029382,-3.6546e-05,0.0088037,-0.46732,0.012716,0.026145,5.7662e-07,0.81,0.05,0
0.040281,0.010649,0.029419,-3.4828e-05,0.0088154,-0.00022773,0,0,0.053571,-0.023011,0,-0.0011842,0,0,0,0.029421,-3.6615e-05,0.0088154,-0.44281,0.012733,0.026179,5.7892e-07,0.82,0.05,0
0.040817,0.01067,0.029457,-3.5046e-05,0.0088265,-0.00021535,0,0,0.053638,-0.02304,0,-0.0011198,0,0,0,0.029458,-3.6643e-05,0.0088265,-0.41821,0.012749,0.026212,5.8111e-07,0.83,0.05,0
0.041354,0.010689,0.029492,-3.522e-05,0.008837,-0.00020289,0,0,0.053702,-0.023068,0,-0.001055,0,0,0,0.029493,-3.6635e-05,0.008837,-0.39355,0.012764,0.026243,5.8318e-07,0.84,0.05,0
0.041892,0.010706,0.029525,-3.5355e-05,0.0088468,-0.00019036,0,0,0.053763,-0.023094,0,-0.00098988,0,0,0,0.029526,-3.66e-05,0.0088468,-0.36885,0.012779,0.026273,5.8513e-07,0.85,0.05,0
0.042429,0.010722,0.029556,-3.5458e-05,0.0088561,-0.00017779,0,0,0.053819,-0.023118,0,-0.00092448,0,0,0,0.029557,-3.6544e-05,0.0088561,-0.34412,0.012792,0.0263,5.8696e-07,0.86,0.05,0
0.042968,0.010737,0.029585,-3.5534e-05,0.0088647,-0.00016517,0,0,0.053872,-0.023141,0,-0.00085887,0,0,0,0.029586,-3.647e-05,0.0088647,-0.31939,0.012805,0.026325,5.8867e-07,0.87,0.05,0
0.043507,0.01075,0.029611,-3.5588e-05,0.0088728,-0.00015252,0,0,0.053921,-0.023162,0,-0.0007931,0,0,0,0.029612,-3.6386e-05,0.0088728,-0.29467,0.012816,0.026349,5.9026e-07,0.88,0.05,0
0.044046,0.010763,0.029636,-3.5623e-05,0.0088801,-0.00013985,0,0,0.053966,-0.023181,0,-0.00072721,0,0,0,0.029637,-3.6294e-05,0.0088801,-0.26996,0.012827,0.026371,5.9172e-07,0.89,0.05,0
0.044586,0.010774,0.029659,-3.5644e-05,0.0088869,-0.00012716,0,0,0.054007,-0.023199,0,-0.00066122,0,0,0,0.029659,-3.6198e-05,0.0088869,-0.24528,0.012837,0.026391,5.9306e-07,0.9,0.05,0
0.045126,0.010784,0.029679,-3.5653e-05,0.008893,-0.00011446,0,0,0.054044,-0.023215,0,-0.00059517,0,0,0,0.02968,-3.6103e-05,0.008893,-0.22063,0.012845,0.026409,5.9428e-07,0.91,0.05,0
0.045667,0.010793,0.029697,-3.5654e-05,0.0088985,-0.00010175,0,0,0.054077,-0.023229,0,-0.00052908,0,0,0,0.029698,-3.601e-05,0.0088985,-0.19601,0.012853,0.026425,5.9537e-07,0.92,0.05,0
0.046208,0.010801,0.029713,-3.565e-05,0.0089033,-8.903e-05,0,0,0.054106,-0.023241,0,-0.00046296,0,0,0,0.029714,-3.5923e-05,0.0089033,-0.17142,0.01286,0.026439,5.9633e-07,0.93,0.05,0
0.046749,0.010807,0.029727,-3.5642e-05,0.0089075,-7.6312e-05,0,0,0.054132,-0.023252,0,-0.00039682,0,0,0,0.029728,-3.5843e-05,0.0089075,-0.14687,0.012866,0.026451,5.9717e-07,0.94,0.05,0
0.047291,0.010813,0.029739,-3.5632e-05,0.0089111,-6.3592e-05,0,0,0.054153,-0.023262,0,-0.00033068,0,0,0,0.029739,-3.5773e-05,0.0089111,-0.12234,0.012872,0.026462,5.9788e-07,0.95,0.05,0
0.047832,0.010817,0.029749,-3.5623e-05,0.008914,-5.0873e-05,0,0,0.054171,-0.023269,0,-0.00026454,0,0,0,0.029749,-3.5713e-05,0.008914,-0.097838,0.012876,0.02647,5.9846e-07,0.96,0.05,0
0.048374,0.010821,0.029757,-3.5614e-05,0.0089163,-3.8154e-05,0,0,0.054185,-0.023275,0,-0.0001984,0,0,0,0.029757,-3.5666e-05,0.0089163,-0.073359,0.012879,0.026477,5.9891e-07,0.97,0.05,0
0.048916,0.010823,0.029762,-3.5607e-05,0.0089179,-2.5435e-05,0,0,0.054194,-0.023279,0,-0.00013226,0,0,0,0.029762,-3.5631e-05,0.0089179,-0.048896,0.012881,0.026481,5.9923e-07,0.98,0.05,0
0.049458,0.010825,0.029765,-3.5602e-05,0.0089189,-1.0297e-05,0,0,0.0542,-0.023282,0,-5.3545e-05,0,0,0,0.029765,-3.5611e-05,0.0089189,-0.019792,0.012883,0.026484,5.9943e-07,0.99,0.05,0
0.049729,0.010826,0.029766,-3.5601e-05,0.0089192,-1.5181e-06,0,0,0.054202,-0.023282,0,-7.8942e-06,0,0,0,0.029766,-3.5605e-05,0.0089192,-0.0029153,0.012883,0.026485,5.9949e-07,1,0.05,0
0.00020427,0.00021401,0.027456,0.011173,0.011589,0.0081856,0,0,0.041255,-0.0010809,0,0.042565,0,0,0,0.030862,0.0077668,0.011589,22.581,0.016739,0.021443,4.5306e-07,0,0.06,0
0.00041255,0.00043027,0.027515,0.010525,0.011412,0.0081146,0,0,0.041868,-0.0023069,0,0.042196,0,0,0,0.030775,0.0072639,0.011412,21.867,0.016484,0.021739,4.6381e-07,0.01,0.06,0
0.00083735,0.00086419,0.027715,0.0091736,0.011067,0.0078741,0,0,0.043286,-0.004922,0,0.040945,0,0,0,0.030622,0.0062673,0.011067,20.208,0.015985,0.022348,4.8551e-07,0.02,0.06,0
0.0012783,0.0012948,0.027952,0.0077825,0.01072,0.0074055,0,0,0.044801,-0.007638,0,0.038508,0,0,0,0.030397,0.0053366,0.01072,18.181,0.015485,0.022853,5.0024e-07,0.03,0.06,0
0.0017334,0.0017106,0.028072,0.0064877,0.010368,0.0067205,0,0,0.046031,-0.010089,0,0.034947,0,0,0,0.030015,0.0045449,0.010368,15.983,0.014976,0.023118,5.0139e-07,0.04,0.06,0
0.0021989,0.0021024,0.028056,0.0053799,0.010031,0.0059104,0,0,0.046866,-0.012092,0,0.030734,0,0,0,0.029525,0.0039106,0.010031,13.785,0.014489,0.023171,4.9177e-07,0.05,0.06,0
0.0026707,0.0024643,0.027915,0.0044737,0.0097167,0.0050606,0,0,0.047316,-0.013632,0,0.026315,0,0,0,0.028981,0.0034083,0.0097167,11.688,0.014035,0.023076,4.7561e-07,0.06,0.06,0
0.0031452,0.0027933,0.027682,0.0037445,0.009428,0.0042312,0,0,0.047461,-0.014777,0,0.022002,0,0,0,0.028425,0.0030015,0.009428,9.7415,0.013618,0.022898,4.5673e-07,0.07,0.06,0
0.0036199,0.0030889,0.027394,0.0031566,0.0091653,0.003456,0,0,0.047396,-0.015623,0,0.017971,0,0,0,0.027892,0.002659,0.0091653,7.9622,0.013239,0.022691,4.3783e-07,0.08,0.06,0
0.0040931,0.0033516,0.027084,0.0026766,0.0089281,0.0027501,0,0,0.047204,-0.016254,0,0.014301,0,0,0,0.027401,0.0023588,0.0089281,6.3522,0.012896,0.02249,4.2048e-07,0.09,0.06,0
0.004564,0.0035832,0.026773,0.0022772,0.0087151,0.0021182,0,0,0.046951,-0.016739,0,0.011014,0,0,0,0.026965,0.0020859,0.0087151,4.9075,0.012589,0.022316,4.0544e-07,0.1,0.06,0
0.0050322,0.0037858,0.026479,0.0019372,0.0085247,0.0015592,0,0,0.04668,-0.017128,0,0.0081081,0,0,0,0.026585,0.0018311,0.0085247,3.6224,0.012313,0.022178,3.9293e-07,0.11,0.06,0
0.0054976,0.0039621,0.026208,0.0016411,0.0083549,0.0010702,0,0,0.046419,-0.017456,0,0.0055653,0,0,0,0.026261,0.0015889,0.0083549,2.4913,0.012068,0.022081,3.8286e-07,0.12,0.06,0
0.0059605,0.0041146,0.025968,0.0013779,0.0082037,0.00064724,0,0,0.046186,-0.017747,0,0.0033656,0,0,0,0.025989,0.0013567,0.0082037,1.5084,0.01185,0.022022,3.7502e-07,0.13,0.06,0
0.0064213,0.0042464,0.025758,0.0011403,0.0080694,0.00028615,0,0,0.04599,-0.018016,0,0.001488,0,0,0,0.025764,0.001134,0.0080694,0.66758,0.011656,0.021998,3.6909e-07,0.14,0.06,0
0.0068803,0.0043603,0.025579,0.00092394,0.0079508,-1.7067e-05,0,0,0.045833,-0.01827,0,-8.875e-05,0,0,0,0.025581,0.00092183,0.0079508,-0.038048,0.011484,0.022003,3.6477e-07,0.15,0.06,0
0.007338,0.0044595,0.025429,0.0007264,0.0078467,-0.00026654,0,0,0.045715,-0.018513,0,-0.001386,0,0,0,0.025434,0.00072214,0.0078467,-0.61667,0.011334,0.022031,3.6176e-07,0.16,0.06,0
0.0077946,0.0045468,0.025308,0.00054705,0.0077564,-0.0004666,0,0,0.045633,-0.018744,0,-0.0024263,0,0,0,0.025317,0.0005374,0.0077564,-1.078,0.011204,0.022074,3.598e-07,0.17,0.06,0
0.0082506,0.0046251,0.025212,0.00038616,0.0076795,-0.00062191,0,0,0.045585,-0.018963,0,-0.003234,0,0,0,0.025228,0.0003701,0.0076795,-1.4331,0.011093,0.022128,3.5867e-07,0.18,0.06,0
0.0087063,0.0046971,0.025141,0.00024441,0.0076155,-0.00073762,0,0,0.045565,-0.019165,0,-0.0038356,0,0,0,0.025163,0.00022231,0.0076155,-1.6948,0.011,0.022188,3.5821e-07,0.19,0.06,0
0.009162,0.0047653,0.025092,0.00012211,0.0075642,-0.0008192,0,0,0.045572,-0.01935,0,-0.0042598,0,0,0,0.025119,9.5148e-05,0.0075642,-1.8766,0.010926,0.02225,3.5833e-07,0.2,0.06,0
0.0096178,0.0048321,0.025066,1.8558e-05,0.0075253,-0.00087217,0,0,0.045605,-0.019518,0,-0.0045353,0,0,0,0.025096,-1.1816e-05,0.0075253,-1.9916,0.01087,0.022315,3.5901e-07,0.21,0.06,0
0.010074,0.0048994,0.025062,-6.8333e-05,0.0074981,-0.00090147,0,0,0.045666,-0.019673,0,-0.0046876,0,0,0,0.025094,-0.00010065,0.0074981,-2.0518,0.010831,0.022385,3.6029e-07,0.22,0.06,0
0.010531,0.0049689,0.025081,-0.00014169,0.0074817,-0.0009109,0,0,0.045757,-0.019821,0,-0.0047367,0,0,0,0.025113,-0.00017458,0.0074817,-2.066,0.010807,0.022461,3.6225e-07,0.23,0.06,0
0.010989,0.0050421,0.025122,-0.0002047,0.0074751,-0.00090276,0,0,0.045881,-0.019967,0,-0.0046944,0,0,0,0.025154,-0.00023693,0.0074751,-2.0395,0.010797,0.022547,3.6495e-07,0.24,0.06,0
0.011449,0.0051203,0.025184,-0.00025953,0.0074774,-0.00087815,0,0,0.046038,-0.020116,0,-0.0045664,0,0,0,0.025215,-0.00028997,0.0074774,-1.9752,0.010801,0.022643,3.6841e-07,0.25,0.06,0
0.01191,0.0052046,0.025267,-0.00030655,0.0074881,-0.00083759,0,0,0.046225,-0.020266,0,-0.0043554,0,0,0,0.025294,-0.00033421,0.0074881,-1.875,0.010816,0.022749,3.7257e-07,0.26,0.06,0
0.012373,0.0052958,0.025366,-0.0003444,0.0075065,-0.00078195,0,0,0.046435,-0.020412,0,-0.0040661,0,0,0,0.02539,-0.0003685,0.0075065,-1.7417,0.010843,0.022862,3.7732e-07,0.27,0.06,0
0.012839,0.0053946,0.025478,-0.0003707,0.0075322,-0.00071312,0,0,0.046659,-0.020548,0,-0.0037082,0,0,0,0.025498,-0.00039078,0.0075322,-1.5804,0.01088,0.022976,3.8247e-07,0.28,0.06,0
0.013306,0.0055014,0.025599,-0.00038329,0.0075647,-0.00063422,0,0,0.046889,-0.020665,0,-0.0032979,0,0,0,0.025615,-0.00039923,0.0075647,-1.3987,0.010927,0.023087,3.8786e-07,0.29,0.06,0
0.013776,0.0056163,0.025725,-0.00038109,0.0076032,-0.00054924,0,0,0.047117,-0.020759,0,-0.0028561,0,0,0,0.025737,-0.00039313,0.0076032,-1.2058,0.010982,0.02319,3.933e-07,0.3,0.06,0
0.014249,0.0057391,0.025853,-0.00036455,0.0076466,-0.00046252,0,0,0.047337,-0.020829,0,-0.0024051,0,0,0,0.025862,-0.00037318,0.0076466,-1.0113,0.011045,0.023285,3.9868e-07,0.31,0.06,0
0.014723,0.0058694,0.02598,-0.00033533,0.0076935,-0.00037813,0,0,0.047546,-0.020875,0,-0.0019663,0,0,0,0.025986,-0.00034121,0.0076935,-0.82381,0.011113,0.02337,4.0392e-07,0.32,0.06,0
0.0152,0.0060066,0.026105,-0.00029583,0.0077427,-0.00029953,0,0,0.047741,-0.0209,0,-0.0015576,0,0,0,0.026109,-0.00029963,0.0077427,-0.65053,0.011184,0.023445,4.0895e-07,0.33,0.06,0
0.015678,0.0061498,0.026225,-0.00024878,0.0077929,-0.00022953,0,0,0.047924,-0.020908,0,-0.0011936,0,0,0,0.026228,-0.00025112,0.0077929,-0.49713,0.011256,0.023512,4.1374e-07,0.34,0.06,0
0.016158,0.0062981,0.026341,-0.000197,0.0078432,-0.00017018,0,0,0.048094,-0.020904,0,-0.00088494,0,0,0,0.026342,-0.00019839,0.0078432,-0.36769,0.011329,0.023572,4.183e-07,0.35,0.06,0
0.01664,0.0064504,0.026451,-0.00014323,0.0078924,-0.0001228,0,0,0.048253,-0.020893,0,-0.00063858,0,0,0,0.026452,-0.00014405,0.0078924,-0.26473,0.0114,0.023626,4.2262e-07,0.36,0.06,0
0.017123,0.0066056,0.026556,-8.9955e-05,0.0079399,-8.8026e-05,0,0,0.048403,-0.020878,0,-0.00045774,0,0,0,0.026557,-9.046e-05,0.0079399,-0.18934,0.011469,0.023676,4.2673e-07,0.37,0.06,0
0.017608,0.0067626,0.026656,-3.9303e-05,0.0079851,-6.5841e-05,0,0,0.048545,-0.020863,0,-0.00034237,0,0,0,0.026657,-3.965e-05,0.0079851,-0.1413,0.011534,0.023725,4.3068e-07,0.38,0.06,0
0.018094,0.0069205,0.026752,7.0234e-06,0.0080276,-5.5697e-05,0,0,0.048682,-0.020853,0,-0.00028962,0,0,0,0.026752,6.744e-06,0.0080276,-0.11923,0.011595,0.023772,4.3451e-07,0.39,0.06,0
0.018582,0.0070781,0.026843,4.7734e-05,0.0080672,-5.6598e-05,0,0,0.048817,-0.020851,0,-0.00029431,0,0,0,0.026843,4.7464e-05,0.0080672,-0.12087,0.011653,0.023821,4.3826e-07,0.4,0.06,0
0.01907,0.0072346,0.026931,8.1953e-05,0.0081039,-6.7196e-05,0,0,0.04895,-0.020857,0,-0.00034942,0,0,0,0.026931,8.1641e-05,0.0081039,-0.14318,0.011706,0.023872,4.4199e-07,0.41,0.06,0
0.019561,0.0073892,0.027016,0.00010921,0.0081377,-8.5898e-05,0,0,0.049085,-0.020874,0,-0.00044667,0,0,0,0.027017,0.0001088,0.0081377,-0.18263,0.011754,0.023926,4.4573e-07,0.42,0.06,0
0.020052,0.0075412,0.0271,0.00012944,0.0081687,-0.00011098,0,0,0.04922,-0.020902,0,-0.00057708,0,0,0,0.0271,0.00012884,0.0081687,-0.23542,0.011799,0.023984,4.4952e-07,0.43,0.06,0
0.020545,0.0076899,0.027181,0.00014291,0.0081973,-0.00014068,0,0,0.049359,-0.020941,0,-0.00073156,0,0,0,0.027182,0.00014204,0.0081973,-0.29771,0.011841,0.024047,4.5338e-07,0.44,0.06,0
0.021039,0.0078349,0.027262,0.00015019,0.0082236,-0.00017336,0,0,0.049499,-0.020991,0,-0.00090147,0,0,0,0.027263,0.00014895,0.0082236,-0.3659,0.011879,0.024113,4.5733e-07,0.45,0.06,0
0.021535,0.0079758,0.027341,0.00015205,0.008248,-0.0002075,0,0,0.049643,-0.02105,0,-0.001079,0,0,0,0.027343,0.00015033,0.008248,-0.43674,0.011914,0.024183,4.6135e-07,0.46,0.06,0
0.022032,0.0081122,0.02742,0.00014935,0.0082708,-0.00024182,0,0,0.049788,-0.021116,0,-0.0012574,0,0,0,0.027422,0.00014707,0.0082708,-0.50748,0.011947,0.024256,4.6544e-07,0.47,0.06,0
0.022531,0.008244,0.027498,0.000143,0.0082923,-0.00027525,0,0,0.049935,-0.021188,0,-0.0014313,0,0,0,0.027501,0.00014011,0.0082923,-0.5759,0.011978,0.024331,4.6959e-07,0.48,0.06,0
0.023031,0.008371,0.027575,0.00013391,0.0083127,-0.00030699,0,0,0.050082,-0.021265,0,-0.0015963,0,0,0,0.027579,0.00013035,0.0083127,-0.64031,0.012007,0.024408,4.7378e-07,0.49,0.06,0
0.023532,0.0084931,0.027651,0.00012286,0.0083323,-0.00033643,0,0,0.05023,-0.021345,0,-0.0017494,0,0,0,0.027656,0.00011864,0.0083323,-0.6995,0.012036,0.024486,4.78e-07,0.5,0.06,0
0.024035,0.0086104,0.027727,0.0001106,0.0083513,-0.00036316,0,0,0.050377,-0.021426,0,-0.0018884,0,0,0,0.027732,0.00010571,0.0083513,-0.75269,0.012063,0.024564,4.8221e-07,0.51,0.06,0
0.02454,0.0087228,0.027802,9.7703e-05,0.0083698,-0.00038694,0,0,0.050523,-0.021508,0,-0.0020121,0,0,0,0.027807,9.2199e-05,0.0083698,-0.79946,0.01209,0.024642,4.8642e-07,0.52,0.06,0
0.025046,0.0088304,0.027876,8.4673e-05,0.0083881,-0.00040767,0,0,0.050668,-0.021589,0,-0.0021199,0,0,0,0.027882,7.8598e-05,0.0083881,-0.83967,0.012116,0.024719,4.9061e-07,0.53,0.06,0
0.025553,0.0089333,0.027949,7.188e-05,0.0084062,-0.00042535,0,0,0.050811,-0.021669,0,-0.0022118,0,0,0,0.027955,6.5301e-05,0.0084062,-0.87339,0.012142,0.024795,4.9476e-07,0.54,0.06,0
0.026062,0.0090315,0.028021,5.9601e-05,0.0084242,-0.00044005,0,0,0.050952,-0.021748,0,-0.0022883,0,0,0,0.028028,5.2591e-05,0.0084242,-0.90086,0.012168,0.02487,4.9887e-07,0.55,0.06,0
0.026572,0.0091252,0.028092,4.8024e-05,0.0084421,-0.00045191,0,0,0.05109,-0.021825,0,-0.0023499,0,0,0,0.0281,4.0661e-05,0.0084421,-0.92242,0.012194,0.024943,5.0294e-07,0.56,0.06,0
0.027084,0.0092146,0.028163,3.7263e-05,0.00846,-0.0004611,0,0,0.051227,-0.021899,0,-0.0023977,0,0,0,0.02817,2.9626e-05,0.00846,-0.93846,0.01222,0.025015,5.0696e-07,0.57,0.06,0
0.027597,0.0092997,0.028232,2.7377e-05,0.0084778,-0.00046779,0,0,0.051361,-0.021971,0,-0.0024325,0,0,0,0.02824,1.9544e-05,0.0084778,-0.94943,0.012246,0.025085,5.1092e-07,0.58,0.06,0
0.028111,0.0093807,0.028301,1.8381e-05,0.0084957,-0.0004722,0,0,0.051493,-0.022041,0,-0.0024554,0,0,0,0.028308,1.0425e-05,0.0084957,-0.95576,0.012272,0.025153,5.1483e-07,0.59,0.06,0
0.028627,0.0094578,0.028368,1.0256e-05,0.0085135,-0.00047451,0,0,0.051622,-0.022108,0,-0.0024675,0,0,0,0.028376,2.2465e-06,0.0085135,-0.9579,0.012297,0.025219,5.1869e-07,0.6,0.06,0
0.029144,0.009531,0.028435,2.962e-06,0.0085313,-0.00047492,0,0,0.051749,-0.022174,0,-0.0024696,0,0,0,0.028443,-5.0381e-06,0.0085313,-0.95625,0.012323,0.025284,5.225e-07,0.61,0.06,0
0.029662,0.0096006,0.0285,-3.5542e-06,0.008549,-0.00047361,0,0,0.051873,-0.022237,0,-0.0024628,0,0,0,0.028508,-1.1489e-05,0.008549,-0.95122,0.012349,0.025348,5.2624e-07,0.62,0.06,0
0.030181,0.0096667,0.028565,-9.3542e-06,0.0085667,-0.00047075,0,0,0.051996,-0.022298,0,-0.0024479,0,0,0,0.028573,-1.7173e-05,0.0085667,-0.94316,0.012374,0.02541,5.2993e-07,0.63,0.06,0
0.030702,0.0097294,0.028629,-1.4502e-05,0.0085842,-0.00046649,0,0,0.052115,-0.022357,0,-0.0024257,0,0,0,0.028636,-2.216e-05,0.0085842,-0.9324,0.012399,0.02547,5.3356e-07,0.64,0.06,0
0.031223,0.0097889,0.028691,-1.906e-05,0.0086016,-0.00046097,0,0,0.052232,-0.022414,0,-0.0023971,0,0,0,0.028698,-2.6521e-05,0.0086016,-0.91925,0.012424,0.025529,5.3713e-07,0.65,0.06,0
0.031746,0.0098453,0.028752,-2.3091e-05,0.0086187,-0.00045433,0,0,0.052347,-0.022469,0,-0.0023625,0,0,0,0.028759,-3.0321e-05,0.0086187,-0.90398,0.012449,0.025586,5.4064e-07,0.66,0.06,0
0.03227,0.0098987,0.028812,-2.6648e-05,0.0086357,-0.00044669,0,0,0.052459,-0.022522,0,-0.0023228,0,0,0,0.028819,-3.3622e-05,0.0086357,-0.88682,0.012474,0.025642,5.4408e-07,0.67,0.06,0
0.032795,0.0099493,0.028871,-2.9785e-05,0.0086524,-0.00043814,0,0,0.052569,-0.022574,0,-0.0022783,0,0,0,0.028878,-3.648e-05,0.0086524,-0.86801,0.012498,0.025696,5.4746e-07,0.68,0.06,0
0.033322,0.0099971,0.028929,-3.2547e-05,0.0086688,-0.00042879,0,0,0.052675,-0.022623,0,-0.0022297,0,0,0,0.028935,-3.8946e-05,0.0086688,-0.84774,0.012522,0.025749,5.5077e-07,0.69,0.06,0
0.033849,0.010042,0.028985,-3.4975e-05,0.0086849,-0.00041872,0,0,0.052779,-0.022672,0,-0.0021773,0,0,0,0.028991,-4.1066e-05,0.0086849,-0.82619,0.012545,0.0258,5.54e-07,0.7,0.06,0
0.034377,0.010085,0.029039,-3.7106e-05,0.0087007,-0.00040801,0,0,0.052881,-0.022718,0,-0.0021217,0,0,0,0.029045,-4.2878e-05,0.0087007,-0.80351,0.012568,0.02585,5.5716e-07,0.71,0.06,0
0.034907,0.010125,0.029093,-3.8972e-05,0.0087161,-0.00039674,0,0,0.052979,-0.022763,0,-0.0020631,0,0,0,0.029098,-4.442e-05,0.0087161,-0.77985,0.01259,0.025898,5.6024e-07,0.72,0.06,0
0.035437,0.010164,0.029144,-4.0602e-05,0.0087311,-0.00038497,0,0,0.053074,-0.022806,0,-0.0020018,0,0,0,0.029149,-4.5723e-05,0.0087311,-0.75534,0.012612,0.025945,5.6323e-07,0.73,0.06,0
0.035968,0.010199,0.029194,-4.2022e-05,0.0087457,-0.00037275,0,0,0.053167,-0.022848,0,-0.0019383,0,0,0,0.029199,-4.6815e-05,0.0087457,-0.7301,0.012633,0.02599,5.6614e-07,0.74,0.06,0
0.0365,0.010233,0.029243,-4.3254e-05,0.0087599,-0.00036014,0,0,0.053256,-0.022888,0,-0.0018727,0,0,0,0.029247,-4.7721e-05,0.0087599,-0.70422,0.012653,0.026034,5.6897e-07,0.75,0.06,0
0.037033,0.010265,0.02929,-4.4318e-05,0.0087736,-0.00034719,0,0,0.053342,-0.022927,0,-0.0018054,0,0,0,0.029294,-4.8463e-05,0.0087736,-0.67781,0.012673,0.026076,5.717e-07,0.76,0.06,0
0.037567,0.010295,0.029335,-4.5233e-05,0.0087869,-0.00033394,0,0,0.053425,-0.022964,0,-0.0017365,0,0,0,0.029339,-4.9062e-05,0.0087869,-0.65094,0.012692,0.026116,5.7434e-07,0.77,0.06,0
0.038102,0.010323,0.029378,-4.6014e-05,0.0087997,-0.00032044,0,0,0.053504,-0.022999,0,-0.0016663,0,0,0,0.029382,-4.9535e-05,0.0087997,-0.62369,0.012711,0.026155,5.7688e-07,0.78,0.06,0
0.038637,0.010349,0.02942,-4.6677e-05,0.008812,-0.00030671,0,0,0.053581,-0.023033,0,-0.0015949,0,0,0,0.029423,-4.9899e-05,0.008812,-0.59612,0.012728,0.026192,5.7932e-07,0.79,0.06,0
0.039173,0.010374,0.02946,-4.7235e-05,0.0088238,-0.00029279,0,0,0.053654,-0.023065,0,-0.0015225,0,0,0,0.029463,-5.0168e-05,0.0088238,-0.56829,0.012745,0.026227,5.8167e-07,0.8,0.06,0
0.03971,0.010397,0.029498,-4.7701e-05,0.0088351,-0.0002787,0,0,0.053723,-0.023095,0,-0.0014492,0,0,0,0.029501,-5.0356e-05,0.0088351,-0.54026,0.012762,0.026261,5.8391e-07,0.81,0.06,0
0.040248,0.010419,0.029534,-4.8086e-05,0.0088458,-0.00026447,0,0,0.05379,-0.023124,0,-0.0013753,0,0,0,0.029536,-5.0474e-05,0.0088458,-0.51206,0.012777,0.026293,5.8604e-07,0.82,0.06,0
0.040786,0.010439,0.029568,-4.84e-05,0.008856,-0.00025013,0,0,0.053852,-0.023151,0,-0.0013007,0,0,0,0.029571,-5.0534e-05,0.008856,-0.48373,0.012792,0.026323,5.8807e-07,0.83,0.06,0
0.041325,0.010457,0.029601,-4.8653e-05,0.0088657,-0.00023569,0,0,0.053912,-0.023177,0,-0.0012256,0,0,0,0.029603,-5.0546e-05,0.0088657,-0.45531,0.012806,0.026352,5.9e-07,0.84,0.06,0
0.041864,0.010475,0.029631,-4.8853e-05,0.0088748,-0.00022118,0,0,0.053967,-0.023201,0,-0.0011501,0,0,0,0.029633,-5.0519e-05,0.0088748,-0.42683,0.012819,0.026379,5.9181e-07,0.85,0.06,0
0.042404,0.01049,0.02966,-4.9008e-05,0.0088833,-0.00020659,0,0,0.05402,-0.023224,0,-0.0010743,0,0,0,0.029661,-5.046e-05,0.0088833,-0.39831,0.012831,0.026404,5.9351e-07,0.86,0.06,0
0.042945,0.010505,0.029687,-4.9125e-05,0.0088913,-0.00019196,0,0,0.054068,-0.023245,0,-0.00099817,0,0,0,0.029688,-5.0378e-05,0.0088913,-0.36976,0.012843,0.026428,5.951e-07,0.87,0.06,0
0.043485,0.010518,0.029711,-4.921e-05,0.0088987,-0.00017728,0,0,0.054113,-0.023265,0,-0.00092185,0,0,0,0.029713,-5.0279e-05,0.0088987,-0.34121,0.012854,0.026449,5.9657e-07,0.88,0.06,0
0.044027,0.01053,0.029734,-4.927e-05,0.0089055,-0.00016257,0,0,0.054155,-0.023282,0,-0.00084536,0,0,0,0.029735,-5.0169e-05,0.0089055,-0.31266,0.012864,0.026469,5.9793e-07,0.89,0.06,0
0.044569,0.010541,0.029755,-4.9309e-05,0.0089118,-0.00014783,0,0,0.054193,-0.023299,0,-0.00076873,0,0,0,0.029756,-5.0052e-05,0.0089118,-0.28412,0.012873,0.026488,5.9918e-07,0.9,0.06,0
0.045111,0.010551,0.029774,-4.9332e-05,0.0089174,-0.00013308,0,0,0.054227,-0.023314,0,-0.00069201,0,0,0,0.029775,-4.9934e-05,0.0089174,-0.25561,0.012881,0.026504,6.0031e-07,0.91,0.06,0
0.045653,0.01056,0.029791,-4.9342e-05,0.0089225,-0.00011831,0,0,0.054258,-0.023327,0,-0.00061522,0,0,0,0.029791,-4.9819e-05,0.0089225,-0.22712,0.012888,0.026519,6.0132e-07,0.92,0.06,0
0.046196,0.010568,0.029806,-4.9344e-05,0.008927,-0.00010353,0,0,0.054285,-0.023338,0,-0.00053838,0,0,0,0.029806,-4.971e-05,0.008927,-0.19865,0.012894,0.026532,6.0222e-07,0.93,0.06,0
0.046739,0.010574,0.029819,-4.934e-05,0.0089308,-8.8751e-05,0,0,0.054309,-0.023348,0,-0.0004615,0,0,0,0.029819,-4.9609e-05,0.0089308,-0.17021,0.0129,0.026543,6.0299e-07,0.94,0.06,0
0.047282,0.01058,0.02983,-4.9332e-05,0.0089341,-7.3963e-05,0,0,0.054329,-0.023357,0,-0.00038461,0,0,0,0.02983,-4.952e-05,0.0089341,-0.1418,0.012905,0.026553,6.0365e-07,0.95,0.06,0
0.047825,0.010584,0.029839,-4.9323e-05,0.0089368,-5.9172e-05,0,0,0.054345,-0.023364,0,-0.00030769,0,0,0,0.029839,-4.9445e-05,0.0089368,-0.11341,0.012909,0.026561,6.0419e-07,0.96,0.06,0
0.048369,0.010588,0.029846,-4.9314e-05,0.0089389,-4.438e-05,0,0,0.054358,-0.023369,0,-0.00023077,0,0,0,0.029846,-4.9385e-05,0.0089389,-0.085039,0.012912,0.026567,6.0461e-07,0.97,0.06,0
0.048913,0.01059,0.029851,-4.9307e-05,0.0089404,-2.9587e-05,0,0,0.054367,-0.023373,0,-0.00015385,0,0,0,0.029851,-4.9341e-05,0.0089404,-0.056684,0.012914,0.026571,6.0491e-07,0.98,0.06,0
0.049456,0.010592,0.029854,-4.9303e-05,0.0089413,-1.2412e-05,0,0,0.054372,-0.023376,0,-6.4542e-05,0,0,0,0.029854,-4.9315e-05,0.0089413,-0.023776,0.012915,0.026574,6.0509e-07,0.99,0.06,0
0.049728,0.010592,0.029855,-4.9301e-05,0.0089416,-2.6337e-06,0,0,0.054374,-0.023376,0,-1.3695e-05,0,0,0,0.029855,-4.9306e-05,0.0089416,-0.0050428,0.012916,0.026575,6.0515e-07,1,0.06,0
0.00020074,0.00020446,0.026992,0.011093,0.011425,0.0078289,0,0,0.040474,-0.00086548,0,0.04071,0,0,0,0.030202,0.0078829,0.011425,22.282,0.016503,0.020777,4.1601e-07,0,0.07,0
0.00040474,0.00040989,0.027047,0.010578,0.011288,0.00777,0,0,0.040976,-0.0018456,0,0.040404,0,0,0,0.03014,0.0074853,0.011288,21.683,0.016304,0.021015,4.2462e-07,0.01,0.07,0
0.00081952,0.00082054,0.027235,0.0094965,0.01102,0.0075738,0,0,0.042161,-0.0039598,0,0.039384,0,0,0,0.030038,0.0066931,0.01102,20.272,0.015917,0.021513,4.4255e-07,0.02,0.07,0
0.001248,0.0012264,0.027471,0.008346,0.010745,0.0071985,0,0,0.043487,-0.0062377,0,0.037432,0,0,0,0.029891,0.0059259,0.010745,18.511,0.015521,0.021958,4.5671e-07,0.03,0.07,0
0.0016893,0.001619,0.027632,0.0072138,0.010454,0.006644,0,0,0.044664,-0.0084239,0,0.034549,0,0,0,0.02962,0.0052262,0.010454,16.55,0.0151,0.022247,4.6192e-07,0.04,0.07,0
0.0021412,0.0019909,0.027695,0.0061816,0.010163,0.0059643,0,0,0.045583,-0.010351,0,0.031014,0,0,0,0.029255,0.0046218,0.010163,14.521,0.01468,0.022385,4.5913e-07,0.05,0.07,0
0.0026009,0.0023368,0.027657,0.005284,0.0098822,0.0052201,0,0,0.046213,-0.011955,0,0.027145,0,0,0,0.028831,0.0041095,0.0098822,12.521,0.014274,0.022402,4.5059e-07,0.06,0.07,0
0.0030655,0.0026534,0.027531,0.0045221,0.009616,0.0044627,0,0,0.046579,-0.013244,0,0.023206,0,0,0,0.028382,0.0036717,0.009616,10.61,0.01389,0.02234,4.3875e-07,0.07,0.07,0
0.0035325,0.0029394,0.027341,0.0038797,0.0093662,0.003728,0,0,0.046735,-0.014265,0,0.019386,0,0,0,0.027933,0.0032881,0.0093662,8.822,0.013529,0.022238,4.2568e-07,0.08,0.07,0
0.0040002,0.0031948,0.02711,0.0033355,0.0091336,0.003038,0,0,0.046738,-0.015075,0,0.015797,0,0,0,0.027503,0.0029419,0.0091336,7.1734,0.013193,0.022126,4.1282e-07,0.09,0.07,0
0.0044673,0.0034207,0.026857,0.0028688,0.0089179,0.0024043,0,0,0.046643,-0.015728,0,0.012502,0,0,0,0.027106,0.0026206,0.0089179,5.6721,0.012881,0.022023,4.0101e-07,0.1,0.07,0
0.004933,0.0036186,0.026599,0.002462,0.0087185,0.0018323,0,0,0.046491,-0.016267,0,0.0095279,0,0,0,0.026746,0.0023159,0.0087185,4.3205,0.012593,0.021941,3.9069e-07,0.11,0.07,0
0.0053971,0.0037909,0.026347,0.0021013,0.0085345,0.0013232,0,0,0.046312,-0.016726,0,0.0068807,0,0,0,0.026425,0.0020231,0.0085345,3.1185,0.012328,0.021886,3.8197e-07,0.12,0.07,0
0.0058593,0.00394,0.026107,0.0017764,0.0083649,0.00087639,0,0,0.046129,-0.01713,0,0.0045572,0,0,0,0.026143,0.00174,0.0083649,2.0639,0.012083,0.021858,3.7479e-07,0.13,0.07,0
0.0063197,0.0040686,0.025884,0.0014802,0.0082091,0.0004899,0,0,0.045954,-0.017495,0,0.0025475,0,0,0,0.025897,0.0014667,0.0082091,1.1529,0.011858,0.021854,3.6899e-07,0.14,0.07,0
0.0067784,0.0041796,0.02568,0.0012086,0.0080666,0.00016107,0,0,0.045795,-0.017831,0,0.00083757,0,0,0,0.025684,0.0012049,0.0080666,0.38007,0.011652,0.021871,3.6435e-07,0.15,0.07,0
0.0072356,0.004276,0.025497,0.00095976,0.0079371,-0.00011345,0,0,0.045656,-0.018141,0,-0.00058993,0,0,0,0.0255,0.00095736,0.0079371,-0.26229,0.011465,0.021903,3.6066e-07,0.16,0.07,0
0.0076915,0.0043607,0.025336,0.00073343,0.0078207,-0.00033764,0,0,0.045539,-0.018427,0,-0.0017557,0,0,0,0.025342,0.00072753,0.0078207,-0.7839,0.011297,0.021945,3.5773e-07,0.17,0.07,0
0.0081463,0.0044366,0.025196,0.00053045,0.0077179,-0.00051615,0,0,0.045443,-0.018687,0,-0.002684,0,0,0,0.025207,0.00051883,0.0077179,-1.1964,0.011148,0.021991,3.5541e-07,0.18,0.07,0
0.0086003,0.0045064,0.025078,0.00035213,0.007629,-0.00065439,0,0,0.045367,-0.01892,0,-0.0034028,0,0,0,0.025096,0.00033432,0.007629,-1.5135,0.01102,0.022039,3.5361e-07,0.19,0.07,0
0.0090537,0.0045727,0.024983,0.00019938,0.0075546,-0.00075846,0,0,0.045313,-0.019124,0,-0.003944,0,0,0,0.025006,0.00017591,0.0075546,-1.7501,0.010912,0.022086,3.5229e-07,0.2,0.07,0
0.0095066,0.0046378,0.024912,7.1459e-05,0.007495,-0.00083475,0,0,0.045284,-0.019301,0,-0.0043407,0,0,0,0.02494,4.3296e-05,0.007495,-1.9217,0.010826,0.022132,3.5153e-07,0.21,0.07,0
0.0099594,0.0047035,0.024867,-3.4883e-05,0.0074496,-0.00088898,0,0,0.045285,-0.01946,0,-0.0046227,0,0,0,0.024899,-6.6637e-05,0.0074496,-2.0415,0.010761,0.022184,3.5147e-07,0.22,0.07,0
0.010412,0.0047715,0.024851,-0.00012486,0.0074179,-0.00092505,0,0,0.045326,-0.019611,0,-0.0048102,0,0,0,0.024885,-0.0001591,0.0074179,-2.1182,0.010715,0.022246,3.5229e-07,0.23,0.07,0
0.010866,0.0048432,0.024866,-0.00020392,0.0073985,-0.00094444,0,0,0.045414,-0.019766,0,-0.0049111,0,0,0,0.024901,-0.0002395,0.0073985,-2.1549,0.010687,0.022324,3.5417e-07,0.24,0.07,0
0.011321,0.0049199,0.024911,-0.00027568,0.0073906,-0.00094659,0,0,0.045553,-0.019932,0,-0.0049223,0,0,0,0.024947,-0.00031132,0.0073906,-2.1503,0.010675,0.022422,3.5718e-07,0.25,0.07,0
0.011777,0.0050025,0.024986,-0.0003406,0.0073936,-0.00093009,0,0,0.04574,-0.020109,0,-0.0048365,0,0,0,0.02502,-0.00037494,0.0073936,-2.1018,0.01068,0.022539,3.6128e-07,0.26,0.07,0
0.012235,0.0050922,0.025087,-0.00039607,0.0074072,-0.00089417,0,0,0.045967,-0.020288,0,-0.0046497,0,0,0,0.025118,-0.00042776,0.0074072,-2.0089,0.010699,0.022668,3.663e-07,0.27,0.07,0
0.012696,0.0051895,0.025208,-0.0004377,0.0074312,-0.0008399,0,0,0.046221,-0.020459,0,-0.0043675,0,0,0,0.025236,-0.00046566,0.0074312,-1.8755,0.010734,0.022803,3.7202e-07,0.28,0.07,0
0.01316,0.0052949,0.025346,-0.00046147,0.0074652,-0.00077051,0,0,0.046489,-0.020609,0,-0.0040066,0,0,0,0.025369,-0.00048503,0.0074652,-1.7103,0.010783,0.022937,3.7817e-07,0.29,0.07,0
0.013626,0.0054088,0.025493,-0.00046547,0.0075083,-0.00069074,0,0,0.046761,-0.020732,0,-0.0035919,0,0,0,0.025512,-0.00048446,0.0075083,-1.5246,0.010845,0.023063,3.8453e-07,0.3,0.07,0
0.014095,0.0055308,0.025646,-0.00045031,0.0075589,-0.00060581,0,0,0.047028,-0.020824,0,-0.0031502,0,0,0,0.025661,-0.00046501,0.0075589,-1.3303,0.010918,0.02318,3.9096e-07,0.31,0.07,0
0.014567,0.0056606,0.025802,-0.00041836,0.0076151,-0.00052049,0,0,0.047286,-0.020887,0,-0.0027065,0,0,0,0.025813,-0.00042932,0.0076151,-1.1377,0.011,0.023287,3.9732e-07,0.32,0.07,0
0.015041,0.0057975,0.025957,-0.00037272,0.0076752,-0.00043884,0,0,0.047532,-0.020924,0,-0.0022819,0,0,0,0.025964,-0.00038062,0.0076752,-0.95531,0.011086,0.023382,4.0354e-07,0.33,0.07,0
0.015517,0.0059406,0.026108,-0.00031675,0.0077374,-0.00036419,0,0,0.047764,-0.020941,0,-0.0018938,0,0,0,0.026114,-0.0003223,0.0077374,-0.78993,0.011176,0.023468,4.0955e-07,0.34,0.07,0
0.015996,0.0060889,0.026255,-0.00025398,0.0078002,-0.00029919,0,0,0.047982,-0.020941,0,-0.0015558,0,0,0,0.026259,-0.00025783,0.0078002,-0.64684,0.011267,0.023545,4.1532e-07,0.35,0.07,0
0.016477,0.0062413,0.026396,-0.00018796,0.0078623,-0.00024571,0,0,0.048187,-0.020931,0,-0.0012777,0,0,0,0.026398,-0.00019063,0.0078623,-0.52962,0.011357,0.023616,4.2083e-07,0.36,0.07,0
0.01696,0.0063967,0.02653,-0.00012191,0.0079224,-0.00020478,0,0,0.04838,-0.020915,0,-0.0010649,0,0,0,0.026532,-0.00012384,0.0079224,-0.44018,0.011443,0.023681,4.2611e-07,0.37,0.07,0
0.017444,0.0065539,0.026658,-5.8619e-05,0.0079797,-0.00017674,0,0,0.048563,-0.0209,0,-0.00091905,0,0,0,0.026659,-6.0089e-05,0.0079797,-0.3789,0.011526,0.023743,4.3116e-07,0.38,0.07,0
0.017931,0.0067118,0.026779,-3.1357e-07,0.0080337,-0.00016128,0,0,0.048738,-0.020888,0,-0.00083865,0,0,0,0.02678,-1.5485e-06,0.0080337,-0.34484,0.011604,0.023804,4.3605e-07,0.39,0.07,0
0.018419,0.0068695,0.026895,5.1252e-05,0.0080839,-0.00015755,0,0,0.048909,-0.020885,0,-0.00081927,0,0,0,0.026896,5.0091e-05,0.0080839,-0.33599,0.011677,0.023866,4.4082e-07,0.4,0.07,0
0.018909,0.0070259,0.027006,9.4827e-05,0.0081302,-0.00016426,0,0,0.049076,-0.020892,0,-0.00085417,0,0,0,0.027007,9.3606e-05,0.0081302,-0.34937,0.011744,0.02393,4.4552e-07,0.41,0.07,0
0.019401,0.0071803,0.027112,0.00012969,0.0081725,-0.00017977,0,0,0.049243,-0.020911,0,-0.00093483,0,0,0,0.027113,0.00012829,0.0081725,-0.38131,0.011805,0.023996,4.5019e-07,0.42,0.07,0
0.019894,0.007332,0.027214,0.00015567,0.008211,-0.00020224,0,0,0.049409,-0.020944,0,-0.0010516,0,0,0,0.027216,0.00015396,0.008211,-0.42774,0.01186,0.024067,4.5487e-07,0.43,0.07,0
0.020389,0.0074803,0.027313,0.00017307,0.008246,-0.00022977,0,0,0.049576,-0.02099,0,-0.0011948,0,0,0,0.027316,0.00017093,0.008246,-0.48449,0.011911,0.024142,4.5958e-07,0.44,0.07,0
0.020886,0.0076248,0.02741,0.0001826,0.0082777,-0.00026055,0,0,0.049743,-0.021047,0,-0.0013549,0,0,0,0.027412,0.00017993,0.0082777,-0.54766,0.011957,0.024221,4.6433e-07,0.45,0.07,0
0.021384,0.007765,0.027503,0.00018526,0.0083065,-0.00029297,0,0,0.049911,-0.021115,0,-0.0015235,0,0,0,0.027506,0.00018195,0.0083065,-0.61378,0.011998,0.024303,4.691e-07,0.46,0.07,0
0.021884,0.0079007,0.027594,0.00018215,0.0083329,-0.00032566,0,0,0.050079,-0.021192,0,-0.0016934,0,0,0,0.027598,0.00017813,0.0083329,-0.67995,0.012036,0.024388,4.7389e-07,0.47,0.07,0
0.022385,0.0080317,0.027682,0.00017446,0.0083571,-0.00035751,0,0,0.050246,-0.021275,0,-0.0018591,0,0,0,0.027687,0.00016967,0.0083571,-0.74386,0.012071,0.024474,4.7867e-07,0.48,0.07,0
0.022889,0.0081579,0.027768,0.00016331,0.0083795,-0.00038768,0,0,0.050411,-0.021362,0,-0.0020159,0,0,0,0.027774,0.00015773,0.0083795,-0.8038,0.012104,0.02456,4.8343e-07,0.49,0.07,0
0.023394,0.0082792,0.027852,0.00014974,0.0084005,-0.00041555,0,0,0.050574,-0.021452,0,-0.0021609,0,0,0,0.027858,0.00014338,0.0084005,-0.85858,0.012134,0.024647,4.8813e-07,0.5,0.07,0
0.0239,0.0083956,0.027933,0.00013463,0.0084204,-0.00044073,0,0,0.050734,-0.021543,0,-0.0022918,0,0,0,0.02794,0.00012753,0.0084204,-0.90746,0.012163,0.024732,4.9277e-07,0.51,0.07,0
0.024408,0.0085071,0.028012,0.00011875,0.0084393,-0.00046298,0,0,0.05089,-0.021633,0,-0.0024075,0,0,0,0.02802,0.00011097,0.0084393,-0.95005,0.01219,0.024816,4.9732e-07,0.52,0.07,0
0.024918,0.0086138,0.028089,0.0001027,0.0084575,-0.00048222,0,0,0.051042,-0.021723,0,-0.0025075,0,0,0,0.028097,9.4299e-05,0.0084575,-0.98626,0.012216,0.024898,5.0179e-07,0.53,0.07,0
0.025429,0.0087159,0.028164,8.6943e-05,0.0084752,-0.00049844,0,0,0.05119,-0.021809,0,-0.0025919,0,0,0,0.028173,7.8007e-05,0.0084752,-1.0162,0.012242,0.024978,5.0615e-07,0.54,0.07,0
0.025942,0.0088133,0.028236,7.1811e-05,0.0084925,-0.00051175,0,0,0.051334,-0.021894,0,-0.0026611,0,0,0,0.028246,6.2432e-05,0.0084925,-1.0401,0.012267,0.025056,5.1041e-07,0.55,0.07,0
0.026456,0.0089062,0.028307,5.7536e-05,0.0085094,-0.00052226,0,0,0.051474,-0.021975,0,-0.0027158,0,0,0,0.028317,4.7806e-05,0.0085094,-1.0582,0.012291,0.025131,5.1457e-07,0.56,0.07,0
0.026971,0.0089948,0.028376,4.4256e-05,0.0085262,-0.00053015,0,0,0.05161,-0.022053,0,-0.0027568,0,0,0,0.028386,3.4266e-05,0.0085262,-1.0711,0.012316,0.025203,5.1863e-07,0.57,0.07,0
0.027488,0.0090792,0.028444,3.2042e-05,0.0085428,-0.0005356,0,0,0.051743,-0.022128,0,-0.0027851,0,0,0,0.028454,2.188e-05,0.0085428,-1.0791,0.01234,0.025273,5.2259e-07,0.58,0.07,0
0.028006,0.0091595,0.02851,2.0909e-05,0.0085592,-0.00053881,0,0,0.051872,-0.0222,0,-0.0028018,0,0,0,0.02852,1.0657e-05,0.0085592,-1.0827,0.012363,0.025341,5.2646e-07,0.59,0.07,0
0.028525,0.0092359,0.028574,1.0834e-05,0.0085755,-0.00053995,0,0,0.051997,-0.022268,0,-0.0028077,0,0,0,0.028585,5.6813e-07,0.0085755,-1.0821,0.012387,0.025406,5.3024e-07,0.6,0.07,0
0.029046,0.0093085,0.028637,1.7679e-06,0.0085917,-0.0005392,0,0,0.052119,-0.022334,0,-0.0028039,0,0,0,0.028648,-8.4416e-06,0.0085917,-1.0779,0.01241,0.025469,5.3393e-07,0.61,0.07,0
0.029568,0.0093775,0.028699,-6.3542e-06,0.0086078,-0.00053675,0,0,0.052237,-0.022397,0,-0.0027911,0,0,0,0.028709,-1.6445e-05,0.0086078,-1.0704,0.012434,0.02553,5.3755e-07,0.62,0.07,0
0.030091,0.009443,0.02876,-1.3606e-05,0.0086238,-0.00053274,0,0,0.052353,-0.022457,0,-0.0027702,0,0,0,0.02877,-2.3522e-05,0.0086238,-1.06,0.012457,0.02559,5.4108e-07,0.63,0.07,0
0.030615,0.0095051,0.028819,-2.0064e-05,0.0086397,-0.00052732,0,0,0.052466,-0.022515,0,-0.002742,0,0,0,0.028829,-2.9756e-05,0.0086397,-1.0468,0.01248,0.025647,5.4454e-07,0.64,0.07,0
0.03114,0.009564,0.028877,-2.5804e-05,0.0086553,-0.00052062,0,0,0.052576,-0.022571,0,-0.0027072,0,0,0,0.028886,-3.5231e-05,0.0086553,-1.0313,0.012502,0.025703,5.4793e-07,0.65,0.07,0
0.031666,0.0096198,0.028934,-3.0898e-05,0.0086708,-0.00051277,0,0,0.052683,-0.022625,0,-0.0026664,0,0,0,0.028943,-4.0023e-05,0.0086708,-1.0136,0.012525,0.025757,5.5124e-07,0.66,0.07,0
0.032194,0.0096727,0.028989,-3.5412e-05,0.0086861,-0.00050388,0,0,0.052788,-0.022676,0,-0.0026202,0,0,0,0.028998,-4.4205e-05,0.0086861,-0.99397,0.012547,0.025809,5.5449e-07,0.67,0.07,0
0.032722,0.0097228,0.029044,-3.9408e-05,0.0087012,-0.00049405,0,0,0.05289,-0.022726,0,-0.0025691,0,0,0,0.029052,-4.7845e-05,0.0087012,-0.97265,0.012568,0.02586,5.5765e-07,0.68,0.07,0
0.033252,0.0097701,0.029096,-4.294e-05,0.008716,-0.00048338,0,0,0.052989,-0.022773,0,-0.0025136,0,0,0,0.029105,-5.1001e-05,0.008716,-0.94982,0.01259,0.025909,5.6075e-07,0.69,0.07,0
0.033782,0.0098149,0.029148,-4.6058e-05,0.0087306,-0.00047194,0,0,0.053085,-0.022819,0,-0.0024541,0,0,0,0.029156,-5.3728e-05,0.0087306,-0.92563,0.012611,0.025957,5.6377e-07,0.7,0.07,0
0.034313,0.0098572,0.029198,-4.8805e-05,0.0087449,-0.00045982,0,0,0.053179,-0.022864,0,-0.0023911,0,0,0,0.029206,-5.6073e-05,0.0087449,-0.90026,0.012631,0.026003,5.6671e-07,0.71,0.07,0
0.034846,0.0098971,0.029247,-5.122e-05,0.0087588,-0.0004471,0,0,0.05327,-0.022906,0,-0.0023249,0,0,0,0.029254,-5.808e-05,0.0087588,-0.87383,0.012652,0.026048,5.6958e-07,0.72,0.07,0
0.035379,0.0099348,0.029295,-5.3337e-05,0.0087724,-0.00043383,0,0,0.053358,-0.022947,0,-0.0022559,0,0,0,0.029301,-5.9786e-05,0.0087724,-0.84648,0.012671,0.026091,5.7236e-07,0.73,0.07,0
0.035913,0.0099703,0.029341,-5.5188e-05,0.0087857,-0.00042007,0,0,0.053443,-0.022986,0,-0.0021844,0,0,0,0.029347,-6.1225e-05,0.0087857,-0.81833,0.01269,0.026133,5.7506e-07,0.74,0.07,0
0.036448,0.010004,0.029385,-5.68e-05,0.0087985,-0.00040589,0,0,0.053525,-0.023024,0,-0.0021106,0,0,0,0.029391,-6.2428e-05,0.0087985,-0.78948,0.012709,0.026173,5.7768e-07,0.75,0.07,0
0.036983,0.010035,0.029428,-5.8198e-05,0.008811,-0.00039132,0,0,0.053605,-0.02306,0,-0.0020349,0,0,0,0.029433,-6.3422e-05,0.008811,-0.76003,0.012727,0.026212,5.8022e-07,0.76,0.07,0
0.03752,0.010065,0.02947,-5.9404e-05,0.0088231,-0.00037643,0,0,0.053681,-0.023094,0,-0.0019574,0,0,0,0.029474,-6.4232e-05,0.0088231,-0.73006,0.012744,0.026249,5.8266e-07,0.77,0.07,0
0.038057,0.010093,0.029509,-6.0439e-05,0.0088347,-0.00036125,0,0,0.053754,-0.023127,0,-0.0018785,0,0,0,0.029514,-6.4879e-05,0.0088347,-0.69966,0.012761,0.026284,5.8501e-07,0.78,0.07,0
0.038595,0.010119,0.029548,-6.1321e-05,0.0088459,-0.00034581,0,0,0.053825,-0.023159,0,-0.0017982,0,0,0,0.029552,-6.5385e-05,0.0088459,-0.66889,0.012777,0.026318,5.8727e-07,0.79,0.07,0
0.039133,0.010143,0.029584,-6.2068e-05,0.0088567,-0.00033015,0,0,0.053892,-0.023189,0,-0.0017168,0,0,0,0.029588,-6.5768e-05,0.0088567,-0.63782,0.012793,0.026351,5.8944e-07,0.8,0.07,0
0.039673,0.010166,0.029619,-6.2695e-05,0.008867,-0.00031431,0,0,0.053956,-0.023217,0,-0.0016344,0,0,0,0.029623,-6.6045e-05,0.008867,-0.6065,0.012808,0.026382,5.9151e-07,0.81,0.07,0
0.040212,0.010187,0.029652,-6.3216e-05,0.0088768,-0.00029831,0,0,0.054017,-0.023244,0,-0.0015512,0,0,0,0.029655,-6.6231e-05,0.0088768,-0.57498,0.012822,0.026411,5.9349e-07,0.82,0.07,0
0.040753,0.010207,0.029684,-6.3644e-05,0.0088861,-0.00028217,0,0,0.054074,-0.023269,0,-0.0014673,0,0,0,0.029687,-6.634e-05,0.0088861,-0.5433,0.012835,0.026439,5.9536e-07,0.83,0.07,0
0.041294,0.010225,0.029714,-6.3992e-05,0.0088949,-0.00026592,0,0,0.054129,-0.023293,0,-0.0013828,0,0,0,0.029716,-6.6384e-05,0.0088949,-0.5115,0.012848,0.026465,5.9714e-07,0.84,0.07,0
0.041835,0.010242,0.029742,-6.4271e-05,0.0089033,-0.00024957,0,0,0.05418,-0.023316,0,-0.0012978,0,0,0,0.029744,-6.6377e-05,0.0089033,-0.4796,0.01286,0.02649,5.9881e-07,0.85,0.07,0
0.042378,0.010258,0.029768,-6.449e-05,0.0089111,-0.00023314,0,0,0.054228,-0.023337,0,-0.0012123,0,0,0,0.02977,-6.6327e-05,0.0089111,-0.44765,0.012872,0.026513,6.0038e-07,0.86,0.07,0
0.04292,0.010272,0.029793,-6.4659e-05,0.0089184,-0.00021665,0,0,0.054273,-0.023356,0,-0.0011266,0,0,0,0.029794,-6.6245e-05,0.0089184,-0.41565,0.012882,0.026535,6.0185e-07,0.87,0.07,0
0.043463,0.010285,0.029815,-6.4786e-05,0.0089252,-0.00020011,0,0,0.054315,-0.023374,0,-0.0010406,0,0,0,0.029817,-6.6139e-05,0.0089252,-0.38362,0.012892,0.026555,6.0321e-07,0.88,0.07,0
0.044006,0.010297,0.029836,-6.4879e-05,0.0089315,-0.00018353,0,0,0.054353,-0.02339,0,-0.00095433,0,0,0,0.029838,-6.6016e-05,0.0089315,-0.35158,0.012901,0.026573,6.0447e-07,0.89,0.07,0
0.04455,0.010308,0.029856,-6.4943e-05,0.0089372,-0.00016691,0,0,0.054388,-0.023406,0,-0.00086792,0,0,0,0.029856,-6.5884e-05,0.0089372,-0.31955,0.012909,0.02659,6.0562e-07,0.9,0.07,0
0.045094,0.010318,0.029873,-6.4985e-05,0.0089424,-0.00015026,0,0,0.054419,-0.023419,0,-0.00078138,0,0,0,0.029874,-6.5748e-05,0.0089424,-0.28752,0.012917,0.026605,6.0666e-07,0.91,0.07,0
0.045638,0.010326,0.029888,-6.501e-05,0.008947,-0.0001336,0,0,0.054448,-0.023431,0,-0.00069473,0,0,0,0.029889,-6.5614e-05,0.008947,-0.25551,0.012924,0.026618,6.0759e-07,0.92,0.07,0
0.046183,0.010334,0.029902,-6.5022e-05,0.0089512,-0.00011692,0,0,0.054473,-0.023442,0,-0.00060801,0,0,0,0.029903,-6.5485e-05,0.0089512,-0.22351,0.012929,0.02663,6.0842e-07,0.93,0.07,0
0.046728,0.01034,0.029914,-6.5025e-05,0.0089547,-0.00010024,0,0,0.054494,-0.023451,0,-0.00052122,0,0,0,0.029914,-6.5367e-05,0.0089547,-0.19153,0.012935,0.026641,6.0914e-07,0.94,0.07,0
0.047273,0.010346,0.029924,-6.5023e-05,0.0089578,-8.3538e-05,0,0,0.054513,-0.023459,0,-0.0004344,0,0,0,0.029924,-6.5261e-05,0.0089578,-0.15957,0.012939,0.02665,6.0974e-07,0.95,0.07,0
0.047818,0.01035,0.029933,-6.5017e-05,0.0089602,-6.6836e-05,0,0,0.054528,-0.023466,0,-0.00034755,0,0,0,0.029933,-6.5171e-05,0.0089602,-0.12764,0.012943,0.026657,6.1024e-07,0.96,0.07,0
0.048364,0.010354,0.029939,-6.501e-05,0.0089622,-5.013e-05,0,0,0.05454,-0.023471,0,-0.00026067,0,0,0,0.029939,-6.5099e-05,0.0089622,-0.095712,0.012945,0.026662,6.1063e-07,0.97,0.07,0
0.048909,0.010356,0.029944,-6.5005e-05,0.0089636,-3.3421e-05,0,0,0.054548,-0.023474,0,-0.00017379,0,0,0,0.029944,-6.5047e-05,0.0089636,-0.063801,0.012947,0.026666,6.1091e-07,0.98,0.07,0
0.049454,0.010357,0.029946,-6.5001e-05,0.0089644,-1.4365e-05,0,0,0.054553,-0.023476,0,-7.4699e-05,0,0,0,0.029946,-6.5015e-05,0.0089644,-0.02742,0.012949,0.026669,6.1107e-07,0.99,0.07,0
0.049727,0.010358,0.029947,-6.4999e-05,0.0089647,-3.6641e-06,0,0,0.054555,-0.023477,0,-1.9053e-05,0,0,0,0.029947,-6.5005e-05,0.0089647,-0.0069919,0.012949,0.02667,6.1113e-07,1,0.07,0
0.00019871,0.0001967,0.026725,0.011066,0.011337,0.0075362,0,0,0.040009,-0.00070637,0,0.039188,0,0,0,0.029764,0.0080266,0.011337,21.953,0.016376,0.020287,3.9064e-07,0,0.08,0
0.00040009,0.00039336,0.026775,0.010647,0.011227,0.0074813,0,0,0.040425,-0.0015065,0,0.038903,0,0,0,0.029715,0.0077071,0.011227,21.437,0.016216,0.020477,3.9744e-07,0.01,0.08,0
0.0008085,0.000785,0.026942,0.0097627,0.011011,0.0073051,0,0,0.041419,-0.0032465,0,0.037987,0,0,0,0.029635,0.0070692,0.011011,20.207,0.015905,0.020878,4.1178e-07,0.02,0.08,0
0.0012285,0.0011701,0.02716,0.0087996,0.010788,0.0069836,0,0,0.042568,-0.0051698,0,0.036315,0,0,0,0.029525,0.0064351,0.010788,18.649,0.015583,0.021252,4.2405e-07,0.03,0.08,0
0.0016599,0.0015421,0.02733,0.0078136,0.010543,0.0065168,0,0,0.043646,-0.0070965,0,0.033887,0,0,0,0.029318,0.0058252,0.010543,16.885,0.015229,0.021527,4.3047e-07,0.04,0.08,0
0.0021014,0.0018954,0.027428,0.006871,0.01029,0.0059368,0,0,0.04456,-0.008889,0,0.030871,0,0,0,0.029033,0.0052661,0.01029,15.02,0.014863,0.021698,4.3119e-07,0.05,0.08,0
0.0025511,0.0022252,0.027447,0.0060101,0.010037,0.0052853,0,0,0.045266,-0.01047,0,0.027484,0,0,0,0.028693,0.004764,0.010037,13.137,0.014498,0.021778,4.2732e-07,0.06,0.08,0
0.0030067,0.0025285,0.027389,0.0052447,0.0097901,0.0046026,0,0,0.045757,-0.011818,0,0.023933,0,0,0,0.028321,0.0043129,0.0097901,11.296,0.014141,0.021793,4.2036e-07,0.07,0.08,0
0.0034662,0.0028036,0.027266,0.0045725,0.0095515,0.0039212,0,0,0.046057,-0.012945,0,0.02039,0,0,0,0.027937,0.0039018,0.0095515,9.5407,0.013797,0.021768,4.1173e-07,0.08,0.08,0
0.0039278,0.0030501,0.027093,0.0039826,0.0093228,0.0032648,0,0,0.046203,-0.013884,0,0.016977,0,0,0,0.027557,0.0035194,0.0093228,7.8959,0.013466,0.021726,4.0256e-07,0.09,0.08,0
0.0043903,0.0032687,0.026886,0.0034618,0.0091045,0.0026487,0,0,0.046233,-0.014671,0,0.013773,0,0,0,0.027192,0.0031567,0.0091045,6.378,0.013151,0.021683,3.9361e-07,0.1,0.08,0
0.0048525,0.0034605,0.026659,0.002997,0.0088967,0.0020821,0,0,0.046181,-0.015339,0,0.010827,0,0,0,0.026848,0.0028073,0.0088967,4.9966,0.012851,0.021649,3.8534e-07,0.11,0.08,0
0.0053139,0.0036275,0.026421,0.0025771,0.0086993,0.0015698,0,0,0.046075,-0.015918,0,0.0081628,0,0,0,0.02653,0.0024677,0.0086993,3.7562,0.012566,0.021631,3.7794e-07,0.12,0.08,0
0.005774,0.003772,0.026181,0.0021935,0.0085122,0.0011138,0,0,0.045938,-0.016429,0,0.0057919,0,0,0,0.026237,0.0021366,0.0085122,2.6581,0.012295,0.02163,3.7145e-07,0.13,0.08,0
0.0062326,0.0038965,0.025944,0.0018401,0.0083353,0.00071438,0,0,0.045783,-0.016887,0,0.0037148,0,0,0,0.025969,0.0018148,0.0083353,1.7009,0.01204,0.021644,3.6578e-07,0.14,0.08,0
0.0066897,0.0040037,0.025716,0.001514,0.008169,0.00037013,0,0,0.045622,-0.017303,0,0.0019247,0,0,0,0.025725,0.0015051,0.008169,0.88036,0.0118,0.021671,3.6082e-07,0.15,0.08,0
0.0071451,0.0040967,0.025499,0.0012141,0.008014,7.8495e-05,0,0,0.045462,-0.01768,0,0.00040817,0,0,0,0.025502,0.0012115,0.008014,0.18913,0.011576,0.021704,3.5642e-07,0.16,0.08,0
0.0075989,0.0041782,0.025297,0.00094107,0.0078715,-0.00016424,0,0,0.045307,-0.018019,0,-0.00085403,0,0,0,0.0253,0.00093819,0.0078715,-0.38282,0.01137,0.021741,3.5247e-07,0.17,0.08,0
0.0080512,0.0042513,0.025112,0.00069627,0.0077424,-0.00036262,0,0,0.04516,-0.01832,0,-0.0018856,0,0,0,0.025118,0.00068962,0.0077424,-0.84762,0.011183,0.021777,3.4889e-07,0.18,0.08,0
0.0085021,0.0043187,0.024946,0.00048189,0.0076283,-0.00052213,0,0,0.045025,-0.018581,0,-0.0027151,0,0,0,0.024958,0.00046986,0.0076283,-1.2194,0.011019,0.021808,3.4567e-07,0.19,0.08,0
0.0089517,0.0043829,0.024802,0.00030006,0.0075306,-0.0006494,0,0,0.044905,-0.018799,0,-0.0033769,0,0,0,0.02482,0.00028227,0.0075306,-1.5148,0.010878,0.021835,3.4285e-07,0.2,0.08,0
0.0094002,0.0044461,0.024684,0.00015049,0.0074505,-0.00075198,0,0,0.044808,-0.01898,0,-0.0039103,0,0,0,0.024708,0.00012709,0.0074505,-1.7521,0.010762,0.021859,3.4059e-07,0.21,0.08,0
0.0098479,0.0045102,0.024598,2.8336e-05,0.0073878,-0.00083671,0,0,0.044746,-0.019135,0,-0.0043509,0,0,0,0.024626,-3.3227e-07,0.0073878,-1.9469,0.010671,0.021889,3.3914e-07,0.22,0.08,0
0.010295,0.0045767,0.024547,-7.508e-05,0.0073417,-0.00090764,0,0,0.044735,-0.019284,0,-0.0047197,0,0,0,0.024581,-0.0001086,0.0073417,-2.1077,0.010605,0.021935,3.3886e-07,0.23,0.08,0
0.010743,0.0046468,0.024537,-0.00016892,0.0073104,-0.00096486,0,0,0.044789,-0.019446,0,-0.0050173,0,0,0,0.024575,-0.00020663,0.0073104,-2.2334,0.010559,0.022008,3.4004e-07,0.24,0.08,0
0.011191,0.0047217,0.024569,-0.00025915,0.0072929,-0.0010051,0,0,0.044917,-0.019635,0,-0.0052265,0,0,0,0.02461,-0.0002999,0.0072929,-2.3156,0.010534,0.022113,3.4284e-07,0.25,0.08,0
0.011641,0.0048024,0.024642,-0.00034633,0.0072886,-0.0010237,0,0,0.045118,-0.019851,0,-0.0053231,0,0,0,0.024684,-0.00038846,0.0072886,-2.3439,0.010528,0.02225,3.4722e-07,0.26,0.08,0
0.012093,0.0048901,0.024751,-0.00042569,0.0072977,-0.0010172,0,0,0.045379,-0.020081,0,-0.0052892,0,0,0,0.024793,-0.00046716,0.0072977,-2.3121,0.010541,0.02241,3.5293e-07,0.27,0.08,0
0.012549,0.0049854,0.024891,-0.00048934,0.0073205,-0.00098521,0,0,0.045683,-0.020306,0,-0.0051231,0,0,0,0.02493,-0.00052814,0.0073205,-2.2222,0.010574,0.022581,3.5965e-07,0.28,0.08,0
0.013007,0.0050892,0.025053,-0.00053006,0.007357,-0.00093127,0,0,0.046011,-0.020506,0,-0.0048426,0,0,0,0.025088,-0.00056468,0.007357,-2.0844,0.010627,0.022751,3.6701e-07,0.29,0.08,0
0.013469,0.0052017,0.025232,-0.00054467,0.0074061,-0.00086126,0,0,0.046347,-0.020672,0,-0.0044785,0,0,0,0.025261,-0.00057428,0.0074061,-1.9137,0.010698,0.022913,3.7473e-07,0.3,0.08,0
0.013934,0.0053226,0.02542,-0.0005345,0.0074656,-0.00078149,0,0,0.046681,-0.0208,0,-0.0040638,0,0,0,0.025444,-0.00055893,0.0074656,-1.7248,0.010784,0.023063,3.8262e-07,0.31,0.08,0
0.014402,0.0054517,0.025612,-0.00050309,0.0075327,-0.00069739,0,0,0.047007,-0.020893,0,-0.0036264,0,0,0,0.025632,-0.00052261,0.0075327,-1.5299,0.010881,0.0232,3.9051e-07,0.32,0.08,0
0.014874,0.0055881,0.025805,-0.00045406,0.0076053,-0.00061345,0,0,0.047319,-0.020954,0,-0.00319,0,0,0,0.02582,-0.00046926,0.0076053,-1.3384,0.010985,0.023325,3.9828e-07,0.33,0.08,0
0.015349,0.005731,0.025995,-0.00039107,0.007681,-0.00053376,0,0,0.047615,-0.020987,0,-0.0027756,0,0,0,0.026006,-0.00040266,0.007681,-1.1589,0.011095,0.023437,4.0583e-07,0.34,0.08,0
0.015826,0.0058793,0.026178,-0.00031832,0.0077579,-0.00046188,0,0,0.047892,-0.020998,0,-0.0024018,0,0,0,0.026187,-0.00032708,0.0077579,-0.99859,0.011206,0.023537,4.1306e-07,0.35,0.08,0
0.016307,0.0060317,0.026353,-0.0002404,0.0078339,-0.00040053,0,0,0.048151,-0.020993,0,-0.0020828,0,0,0,0.02636,-0.00024704,0.0078339,-0.86266,0.011316,0.023627,4.1995e-07,0.36,0.08,0
0.016789,0.0061873,0.02652,-0.0001615,0.0079075,-0.00035139,0,0,0.048392,-0.020979,0,-0.0018272,0,0,0,0.026525,-0.00016665,0.0079075,-0.75421,0.011422,0.023709,4.265e-07,0.37,0.08,0
0.017274,0.0063446,0.026677,-8.51e-05,0.0079776,-0.00031526,0,0,0.048618,-0.020963,0,-0.0016393,0,0,0,0.026681,-8.9263e-05,0.0079776,-0.6745,0.011523,0.023786,4.3274e-07,0.38,0.08,0
0.017762,0.0065027,0.026825,-1.4054e-05,0.0080434,-0.00029222,0,0,0.048833,-0.020949,0,-0.0015195,0,0,0,0.026829,-1.7623e-05,0.0080434,-0.62332,0.011618,0.02386,4.3871e-07,0.39,0.08,0
0.018251,0.0066604,0.026965,4.9288e-05,0.0081044,-0.00028171,0,0,0.049038,-0.020943,0,-0.0014649,0,0,0,0.026969,4.6001e-05,0.0081044,-0.59911,0.011706,0.023933,4.4447e-07,0.4,0.08,0
0.018742,0.0068168,0.027098,0.00010313,0.0081603,-0.00028253,0,0,0.049238,-0.020949,0,-0.0014692,0,0,0,0.027101,9.9868e-05,0.0081603,-0.59905,0.011787,0.024008,4.5009e-07,0.41,0.08,0
0.019236,0.006971,0.027224,0.00014636,0.008211,-0.00029299,0,0,0.049433,-0.020968,0,-0.0015235,0,0,0,0.027227,0.00014292,0.008211,-0.61928,0.01186,0.024086,4.5563e-07,0.42,0.08,0
0.019731,0.0071223,0.027344,0.00017866,0.0082568,-0.00031106,0,0,0.049627,-0.021003,0,-0.0016175,0,0,0,0.027348,0.00017484,0.0082568,-0.65534,0.011926,0.024168,4.6114e-07,0.43,0.08,0
0.020228,0.0072701,0.027459,0.00020038,0.0082979,-0.00033468,0,0,0.049819,-0.021053,0,-0.0017403,0,0,0,0.027464,0.00019603,0.0082979,-0.70266,0.011986,0.024254,4.6664e-07,0.44,0.08,0
0.020728,0.007414,0.02757,0.0002124,0.0083346,-0.00036185,0,0,0.050011,-0.021118,0,-0.0018816,0,0,0,0.027575,0.0002074,0.0083346,-0.75697,0.012039,0.024343,4.7214e-07,0.45,0.08,0
0.021229,0.0075535,0.027676,0.00021598,0.0083675,-0.00039085,0,0,0.050201,-0.021194,0,-0.0020324,0,0,0,0.027682,0.00021022,0.0083675,-0.81458,0.012086,0.024436,4.7761e-07,0.46,0.08,0
0.021732,0.0076884,0.027778,0.00021255,0.008397,-0.00042021,0,0,0.050389,-0.02128,0,-0.0021851,0,0,0,0.027784,0.00020596,0.008397,-0.87244,0.012129,0.024531,4.8304e-07,0.47,0.08,0
0.022236,0.0078185,0.027875,0.00020356,0.0084237,-0.00044881,0,0,0.050574,-0.021372,0,-0.0023338,0,0,0,0.027883,0.00019611,0.0084237,-0.92823,0.012168,0.024626,4.8841e-07,0.48,0.08,0
0.022743,0.0079438,0.027969,0.0001904,0.0084478,-0.00047578,0,0,0.050755,-0.021469,0,-0.0024741,0,0,0,0.027977,0.0001821,0.0084478,-0.98025,0.012202,0.024721,4.9368e-07,0.49,0.08,0
0.023251,0.0080641,0.028059,0.00017434,0.00847,-0.00050054,0,0,0.050931,-0.021569,0,-0.0026028,0,0,0,0.028068,0.00016522,0.00847,-1.0274,0.012234,0.024815,4.9883e-07,0.5,0.08,0
0.023762,0.0081795,0.028145,0.00015646,0.0084904,-0.00052271,0,0,0.051102,-0.021668,0,-0.0027181,0,0,0,0.028155,0.00014658,0.0084904,-1.0689,0.012264,0.024907,5.0385e-07,0.51,0.08,0
0.024274,0.0082901,0.028227,0.00013768,0.0085095,-0.00054209,0,0,0.051266,-0.021767,0,-0.0028189,0,0,0,0.028238,0.00012712,0.0085095,-1.1046,0.012291,0.024997,5.0871e-07,0.52,0.08,0
0.024787,0.0083959,0.028306,0.00011871,0.0085275,-0.0005586,0,0,0.051425,-0.021863,0,-0.0029047,0,0,0,0.028317,0.00010755,0.0085275,-1.1343,0.012317,0.025083,5.1342e-07,0.53,0.08,0
0.025302,0.0084971,0.028382,0.00010009,0.0085446,-0.00057227,0,0,0.051577,-0.021956,0,-0.0029758,0,0,0,0.028394,8.8429e-05,0.0085446,-1.1582,0.012342,0.025166,5.1796e-07,0.54,0.08,0
0.025819,0.0085936,0.028455,8.2222e-05,0.0085611,-0.0005832,0,0,0.051724,-0.022045,0,-0.0030326,0,0,0,0.028467,7.016e-05,0.0085611,-1.1765,0.012366,0.025246,5.2235e-07,0.55,0.08,0
0.026336,0.0086857,0.028525,6.5363e-05,0.0085771,-0.00059151,0,0,0.051864,-0.02213,0,-0.0030759,0,0,0,0.028537,5.3001e-05,0.0085771,-1.1897,0.012389,0.025322,5.2657e-07,0.56,0.08,0
0.026856,0.0087735,0.028592,4.9672e-05,0.0085926,-0.00059737,0,0,0.051999,-0.022212,0,-0.0031063,0,0,0,0.028605,3.7108e-05,0.0085926,-1.198,0.012412,0.025395,5.3065e-07,0.57,0.08,0
0.027376,0.0088571,0.028658,3.5226e-05,0.0086079,-0.00060096,0,0,0.05213,-0.022289,0,-0.003125,0,0,0,0.02867,2.2551e-05,0.0086079,-1.2018,0.012434,0.025465,5.3459e-07,0.58,0.08,0
0.027898,0.0089367,0.028721,2.2038e-05,0.0086229,-0.00060244,0,0,0.052255,-0.022362,0,-0.0031327,0,0,0,0.028734,9.3395e-06,0.0086229,-1.2016,0.012455,0.025531,5.384e-07,0.59,0.08,0
0.028422,0.0090124,0.028782,1.008e-05,0.0086377,-0.00060198,0,0,0.052376,-0.022432,0,-0.0031303,0,0,0,0.028795,-2.564e-06,0.0086377,-1.1977,0.012477,0.025595,5.4209e-07,0.6,0.08,0
0.028946,0.0090844,0.028842,-7.0774e-07,0.0086523,-0.00059974,0,0,0.052492,-0.022498,0,-0.0031187,0,0,0,0.028854,-1.3225e-05,0.0086523,-1.1903,0.012498,0.025657,5.4567e-07,0.61,0.08,0
0.029471,0.0091527,0.0289,-1.0401e-05,0.0086668,-0.00059588,0,0,0.052605,-0.022561,0,-0.0030986,0,0,0,0.028912,-2.2726e-05,0.0086668,-1.1799,0.012519,0.025716,5.4914e-07,0.62,0.08,0
0.029998,0.0092176,0.028956,-1.9084e-05,0.0086811,-0.00059052,0,0,0.052715,-0.02262,0,-0.0030707,0,0,0,0.028968,-3.1161e-05,0.0086811,-1.1667,0.012539,0.025772,5.5252e-07,0.63,0.08,0
0.030526,0.0092791,0.029011,-2.6846e-05,0.0086953,-0.00058379,0,0,0.052821,-0.022678,0,-0.0030357,0,0,0,0.029023,-3.8623e-05,0.0086953,-1.1509,0.01256,0.025827,5.558e-07,0.64,0.08,0
0.031054,0.0093375,0.029065,-3.3772e-05,0.0087093,-0.00057582,0,0,0.052924,-0.022732,0,-0.0029943,0,0,0,0.029076,-4.5206e-05,0.0087093,-1.1329,0.01258,0.02588,5.5901e-07,0.65,0.08,0
0.031584,0.0093928,0.029117,-3.9944e-05,0.0087232,-0.00056671,0,0,0.053024,-0.022784,0,-0.0029469,0,0,0,0.029128,-5.0996e-05,0.0087232,-1.1128,0.0126,0.02593,5.6212e-07,0.66,0.08,0
0.032115,0.0094452,0.029168,-4.5437e-05,0.0087368,-0.00055656,0,0,0.053122,-0.022834,0,-0.0028941,0,0,0,0.029179,-5.6076e-05,0.0087368,-1.0907,0.01262,0.02598,5.6516e-07,0.67,0.08,0
0.032647,0.0094948,0.029218,-5.032e-05,0.0087503,-0.00054546,0,0,0.053216,-0.022882,0,-0.0028364,0,0,0,0.029228,-6.052e-05,0.0087503,-1.067,0.012639,0.026027,5.6813e-07,0.68,0.08,0
0.033179,0.0095416,0.029267,-5.4654e-05,0.0087636,-0.0005335,0,0,0.053308,-0.022927,0,-0.0027742,0,0,0,0.029276,-6.4395e-05,0.0087636,-1.0418,0.012658,0.026073,5.7101e-07,0.69,0.08,0
0.033713,0.009586,0.029314,-5.8496e-05,0.0087766,-0.00052075,0,0,0.053397,-0.022971,0,-0.0027079,0,0,0,0.029323,-6.7761e-05,0.0087766,-1.0152,0.012677,0.026117,5.7382e-07,0.7,0.08,0
0.034247,0.0096278,0.02936,-6.1895e-05,0.0087894,-0.0005073,0,0,0.053483,-0.023013,0,-0.002638,0,0,0,0.029369,-7.0674e-05,0.0087894,-0.9873,0.012696,0.02616,5.7655e-07,0.71,0.08,0
0.034782,0.0096674,0.029404,-6.4895e-05,0.0088019,-0.00049321,0,0,0.053567,-0.023054,0,-0.0025647,0,0,0,0.029413,-7.318e-05,0.0088019,-0.95836,0.012714,0.026201,5.792e-07,0.72,0.08,0
0.035319,0.0097046,0.029448,-6.7536e-05,0.0088141,-0.00047855,0,0,0.053648,-0.023092,0,-0.0024885,0,0,0,0.029456,-7.5324e-05,0.0088141,-0.92845,0.012731,0.026241,5.8178e-07,0.73,0.08,0
0.035855,0.0097397,0.02949,-6.9854e-05,0.008826,-0.00046337,0,0,0.053726,-0.023129,0,-0.0024095,0,0,0,0.029497,-7.7145e-05,0.008826,-0.89768,0.012749,0.026279,5.8428e-07,0.74,0.08,0
0.036393,0.0097728,0.02953,-7.1879e-05,0.0088376,-0.00044774,0,0,0.053801,-0.023165,0,-0.0023282,0,0,0,0.029537,-7.8678e-05,0.0088376,-0.86616,0.012765,0.026316,5.8669e-07,0.75,0.08,0
0.036931,0.0098039,0.02957,-7.3643e-05,0.0088488,-0.0004317,0,0,0.053874,-0.023198,0,-0.0022448,0,0,0,0.029576,-7.9955e-05,0.0088488,-0.834,0.012782,0.026352,5.8903e-07,0.76,0.08,0
0.037471,0.0098332,0.029607,-7.517e-05,0.0088597,-0.0004153,0,0,0.053944,-0.023231,0,-0.0021595,0,0,0,0.029613,-8.1005e-05,0.0088597,-0.80127,0.012797,0.026386,5.9128e-07,0.77,0.08,0
0.03801,0.0098606,0.029644,-7.6486e-05,0.0088702,-0.00039858,0,0,0.054011,-0.023261,0,-0.0020726,0,0,0,0.029649,-8.1855e-05,0.0088702,-0.76806,0.012812,0.026418,5.9344e-07,0.78,0.08,0
0.038551,0.0098863,0.029679,-7.7613e-05,0.0088803,-0.00038158,0,0,0.054076,-0.023291,0,-0.0019842,0,0,0,0.029684,-8.2528e-05,0.0088803,-0.73444,0.012827,0.026449,5.9552e-07,0.79,0.08,0
0.039092,0.0099104,0.029712,-7.8571e-05,0.00889,-0.00036435,0,0,0.054137,-0.023318,0,-0.0018946,0,0,0,0.029716,-8.3048e-05,0.00889,-0.70048,0.012841,0.026479,5.9751e-07,0.8,0.08,0
0.039633,0.0099329,0.029744,-7.938e-05,0.0088993,-0.0003469,0,0,0.054196,-0.023345,0,-0.0018039,0,0,0,0.029748,-8.3434e-05,0.0088993,-0.66622,0.012855,0.026507,5.9942e-07,0.81,0.08,0
0.040176,0.0099538,0.029774,-8.0056e-05,0.0089082,-0.00032928,0,0,0.054251,-0.02337,0,-0.0017122,0,0,0,0.029778,-8.3706e-05,0.0089082,-0.63173,0.012867,0.026534,6.0123e-07,0.82,0.08,0
0.040719,0.0099733,0.029803,-8.0616e-05,0.0089167,-0.0003115,0,0,0.054304,-0.023393,0,-0.0016198,0,0,0,0.029806,-8.388e-05,0.0089167,-0.59705,0.01288,0.026559,6.0295e-07,0.83,0.08,0
0.041262,0.0099914,0.02983,-8.1075e-05,0.0089247,-0.00029359,0,0,0.054354,-0.023415,0,-0.0015267,0,0,0,0.029833,-8.3973e-05,0.0089247,-0.56222,0.012891,0.026583,6.0458e-07,0.84,0.08,0
0.041806,0.010008,0.029856,-8.1447e-05,0.0089323,-0.00027558,0,0,0.054401,-0.023436,0,-0.001433,0,0,0,0.029858,-8.3998e-05,0.0089323,-0.52727,0.012902,0.026606,6.0612e-07,0.85,0.08,0
0.04235,0.010024,0.02988,-8.1743e-05,0.0089394,-0.00025747,0,0,0.054445,-0.023455,0,-0.0013388,0,0,0,0.029882,-8.3969e-05,0.0089394,-0.49224,0.012912,0.026627,6.0756e-07,0.86,0.08,0
0.042894,0.010038,0.029902,-8.1975e-05,0.008946,-0.00023929,0,0,0.054486,-0.023473,0,-0.0012443,0,0,0,0.029904,-8.3897e-05,0.008946,-0.45713,0.012922,0.026646,6.089e-07,0.87,0.08,0
0.04344,0.010051,0.029923,-8.2153e-05,0.0089522,-0.00022104,0,0,0.054524,-0.023489,0,-0.0011494,0,0,0,0.029925,-8.3793e-05,0.0089522,-0.42199,0.012931,0.026664,6.1015e-07,0.88,0.08,0
0.043985,0.010063,0.029942,-8.2287e-05,0.0089579,-0.00020274,0,0,0.054559,-0.023505,0,-0.0010543,0,0,0,0.029943,-8.3667e-05,0.0089579,-0.38681,0.012939,0.026681,6.113e-07,0.89,0.08,0
0.044531,0.010073,0.02996,-8.2384e-05,0.0089631,-0.0001844,0,0,0.054591,-0.023518,0,-0.00095889,0,0,0,0.029961,-8.3526e-05,0.0089631,-0.35162,0.012947,0.026696,6.1236e-07,0.9,0.08,0
0.045077,0.010083,0.029975,-8.2452e-05,0.0089679,-0.00016603,0,0,0.05462,-0.023531,0,-0.00086335,0,0,0,0.029976,-8.3378e-05,0.0089679,-0.31642,0.012954,0.02671,6.1331e-07,0.91,0.08,0
0.045623,0.010091,0.02999,-8.2497e-05,0.0089721,-0.00014763,0,0,0.054646,-0.023542,0,-0.00076767,0,0,0,0.02999,-8.323e-05,0.0089721,-0.28122,0.01296,0.026723,6.1417e-07,0.92,0.08,0
0.04617,0.010099,0.030002,-8.2524e-05,0.0089759,-0.00012921,0,0,0.054668,-0.023552,0,-0.00067189,0,0,0,0.030003,-8.3087e-05,0.0089759,-0.24604,0.012965,0.026733,6.1493e-07,0.93,0.08,0
0.046716,0.010105,0.030013,-8.2539e-05,0.0089792,-0.00011077,0,0,0.054688,-0.02356,0,-0.00057603,0,0,0,0.030014,-8.2954e-05,0.0089792,-0.21086,0.01297,0.026743,6.1559e-07,0.94,0.08,0
0.047263,0.010111,0.030022,-8.2545e-05,0.0089819,-9.2328e-05,0,0,0.054705,-0.023568,0,-0.0004801,0,0,0,0.030023,-8.2835e-05,0.0089819,-0.17569,0.012974,0.026751,6.1614e-07,0.95,0.08,0
0.047811,0.010115,0.03003,-8.2546e-05,0.0089842,-7.3871e-05,0,0,0.054719,-0.023574,0,-0.00038413,0,0,0,0.03003,-8.2733e-05,0.0089842,-0.14054,0.012977,0.026757,6.166e-07,0.96,0.08,0
0.048358,0.010118,0.030036,-8.2543e-05,0.008986,-5.5409e-05,0,0,0.05473,-0.023578,0,-0.00028812,0,0,0,0.030036,-8.2651e-05,0.008986,-0.10539,0.01298,0.026763,6.1696e-07,0.97,0.08,0
0.048905,0.010121,0.03004,-8.254e-05,0.0089872,-3.6941e-05,0,0,0.054737,-0.023581,0,-0.0001921,0,0,0,0.03004,-8.2591e-05,0.0089872,-0.070256,0.012982,0.026766,6.1721e-07,0.98,0.08,0
0.049453,0.010122,0.030043,-8.2538e-05,0.008988,-1.6159e-05,0,0,0.054742,-0.023583,0,-8.4024e-05,0,0,0,0.030043,-8.2556e-05,0.008988,-0.030727,0.012983,0.026768,6.1736e-07,0.99,0.08,0
0.049726,0.010123,0.030043,-8.2537e-05,0.0089882,-4.6102e-06,0,0,0.054743,-0.023584,0,-2.3973e-05,0,0,0,0.030043,-8.2544e-05,0.0089882,-0.008765,0.012983,0.026769,6.1741e-07,1,0.08,0
0.00019779,0.00019033,0.026607,0.011083,0.011307,0.007294,0,0,0.03978,-0.00058262,0,0.037929,0,0,0,0.029497,0.0081923,0.011307,21.61,0.016332,0.019932,3.7341e-07,0,0.09,0
0.0003978,0.00037976,0.02665,0.010737,0.011216,0.0072397,0,0,0.040128,-0.0012451,0,0.037646,0,0,0,0.029454,0.0079333,0.011216,21.157,0.016201,0.020082,3.7872e-07,0.01,0.09,0
0.00080255,0.00075561,0.026795,0.010002,0.011039,0.0070713,0,0,0.040966,-0.0026972,0,0.036771,0,0,0,0.029382,0.0074151,0.011039,20.063,0.015945,0.020399,3.8993e-07,0.02,0.09,0
0.0012171,0.001123,0.02699,0.0091847,0.010852,0.0067813,0,0,0.041957,-0.004336,0,0.035263,0,0,0,0.029286,0.0068881,0.010852,18.662,0.015676,0.020704,3.9998e-07,0.03,0.09,0
0.0016417,0.0014771,0.027152,0.0083227,0.010642,0.0063741,0,0,0.042924,-0.0060311,0,0.033145,0,0,0,0.029116,0.006358,0.010642,17.063,0.015372,0.020949,4.0627e-07,0.04,0.09,0
0.0020756,0.0018131,0.027261,0.0074678,0.010419,0.0058694,0,0,0.043791,-0.0076724,0,0.030521,0,0,0,0.028882,0.0058471,0.010419,15.348,0.015049,0.021125,4.0862e-07,0.05,0.09,0
0.0025175,0.0021274,0.027307,0.0066556,0.010189,0.0052955,0,0,0.044508,-0.0091865,0,0.027537,0,0,0,0.028598,0.0053653,0.010189,13.587,0.014717,0.021237,4.0749e-07,0.06,0.09,0
0.0029658,0.0024171,0.027288,0.0059049,0.0099578,0.0046828,0,0,0.045058,-0.010537,0,0.024351,0,0,0,0.02828,0.0049129,0.0099578,11.837,0.014383,0.021299,4.0375e-07,0.07,0.09,0
0.0034187,0.0026805,0.027207,0.0052212,0.0097283,0.004059,0,0,0.045444,-0.011719,0,0.021107,0,0,0,0.027943,0.0044849,0.0097283,10.142,0.014052,0.021327,3.983e-07,0.08,0.09,0
0.0038746,0.0029172,0.027073,0.0046015,0.0095024,0.0034461,0,0,0.045684,-0.012742,0,0.01792,0,0,0,0.0276,0.0040749,0.0095024,8.5338,0.013726,0.021336,3.9197e-07,0.09,0.09,0
0.0043323,0.0031273,0.026897,0.004039,0.0092809,0.0028607,0,0,0.045803,-0.013629,0,0.014876,0,0,0,0.027259,0.0036775,0.0092809,7.0338,0.013406,0.02134,3.8533e-07,0.1,0.09,0
0.0047907,0.0033118,0.02669,0.0035255,0.0090646,0.002314,0,0,0.045826,-0.014402,0,0.012033,0,0,0,0.026926,0.0032889,0.0090646,5.6564,0.013093,0.021345,3.7875e-07,0.11,0.09,0
0.0052489,0.0034725,0.026459,0.0030533,0.0088538,0.001813,0,0,0.045775,-0.015081,0,0.0094275,0,0,0,0.026606,0.0029071,0.0088538,4.4097,0.012789,0.021356,3.7243e-07,0.12,0.09,0
0.0057062,0.0036114,0.026214,0.0026158,0.0086489,0.0013615,0,0,0.045669,-0.015686,0,0.0070801,0,0,0,0.026298,0.002532,0.0086489,3.2976,0.012493,0.021375,3.6641e-07,0.13,0.09,0
0.0061622,0.0037308,0.02596,0.0022087,0.0084505,0.0009615,0,0,0.045524,-0.016229,0,0.0049998,0,0,0,0.026003,0.0021652,0.0084505,2.3204,0.012206,0.021399,3.6069e-07,0.14,0.09,0
0.0066167,0.0038335,0.025702,0.0018304,0.0082597,0.00061266,0,0,0.04535,-0.016716,0,0.0031858,0,0,0,0.025721,0.0018109,0.0082597,1.4748,0.011931,0.021427,3.5517e-07,0.15,0.09,0
0.0070692,0.0039224,0.025446,0.001482,0.0080783,0.0003128,0,0,0.045155,-0.01715,0,0.0016266,0,0,0,0.025453,0.0014749,0.0080783,0.75303,0.011669,0.021453,3.4977e-07,0.16,0.09,0
0.0075198,0.0040003,0.025196,0.0011653,0.0079085,5.7883e-05,0,0,0.044948,-0.017532,0,0.00030099,0,0,0,0.025199,0.0011628,0.0079085,0.14308,0.011423,0.021473,3.4447e-07,0.17,0.09,0
0.0079682,0.0040702,0.024959,0.00088175,0.0077521,-0.00015687,0,0,0.044737,-0.017863,0,-0.0008157,0,0,0,0.024962,0.0008788,0.0077521,-0.36841,0.011197,0.021487,3.3932e-07,0.18,0.09,0
0.0084145,0.0041348,0.024738,0.00063379,0.0076114,-0.00033658,0,0,0.044528,-0.018142,0,-0.0017502,0,0,0,0.024744,0.00062762,0.0076114,-0.79528,0.010994,0.021493,3.3439e-07,0.19,0.09,0
0.0088588,0.0041967,0.024539,0.0004261,0.0074896,-0.00048805,0,0,0.044329,-0.018365,0,-0.0025379,0,0,0,0.02455,0.00041514,0.0074896,-1.1549,0.010818,0.02149,3.2981e-07,0.2,0.09,0
0.0093011,0.0042582,0.02437,0.00026033,0.007389,-0.00062035,0,0,0.04415,-0.018535,0,-0.0032258,0,0,0,0.024386,0.0002436,0.007389,-1.4693,0.010673,0.021481,3.258e-07,0.21,0.09,0
0.0097417,0.0043208,0.024237,0.0001294,0.00731,-0.0007423,0,0,0.044011,-0.018669,0,-0.00386,0,0,0,0.02426,0.00010604,0.00731,-1.7592,0.010559,0.021479,3.2279e-07,0.22,0.09,0
0.010181,0.0043858,0.02415,1.8697e-05,0.0072505,-0.00085825,0,0,0.043938,-0.018803,0,-0.0044629,0,0,0,0.02418,-1.2127e-05,0.0072505,-2.0328,0.010473,0.021502,3.2132e-07,0.23,0.09,0
0.01062,0.0044543,0.024115,-8.6894e-05,0.0072083,-0.00096602,0,0,0.043956,-0.018967,0,-0.0050233,0,0,0,0.024153,-0.00012564,0.0072083,-2.282,0.010412,0.021568,3.2186e-07,0.24,0.09,0
0.01106,0.0045272,0.024136,-0.00019675,0.0071817,-0.0010582,0,0,0.044081,-0.019184,0,-0.0055027,0,0,0,0.024182,-0.00024295,0.0071817,-2.4869,0.010374,0.021688,3.2465e-07,0.25,0.09,0
0.011502,0.0046055,0.024213,-0.00031158,0.0071703,-0.0011254,0,0,0.04431,-0.019453,0,-0.0058519,0,0,0,0.024265,-0.00036354,0.0071703,-2.6246,0.010357,0.021858,3.2965e-07,0.26,0.09,0
0.011947,0.0046905,0.024339,-0.00042339,0.0071748,-0.0011599,0,0,0.044628,-0.019755,0,-0.0060314,0,0,0,0.024394,-0.00047825,0.0071748,-2.6795,0.010364,0.022065,3.3652e-07,0.27,0.09,0
0.012395,0.0047834,0.024507,-0.00051838,0.0071966,-0.0011592,0,0,0.045007,-0.020059,0,-0.0060279,0,0,0,0.024562,-0.00057287,0.0071966,-2.6503,0.010395,0.022289,3.4475e-07,0.28,0.09,0
0.012847,0.0048848,0.024706,-0.00058364,0.0072368,-0.0011272,0,0,0.045421,-0.020333,0,-0.0058616,0,0,0,0.024758,-0.00063491,0.0072368,-2.5507,0.010453,0.022513,3.5385e-07,0.29,0.09,0
0.013303,0.0049953,0.024928,-0.00061429,0.007294,-0.0010719,0,0,0.045848,-0.020562,0,-0.0055737,0,0,0,0.024974,-0.00066048,0.007294,-2.402,0.010536,0.022726,3.6346e-07,0.3,0.09,0
0.013764,0.0051148,0.025163,-0.00061405,0.0073647,-0.0010009,0,0,0.046276,-0.020745,0,-0.0052044,0,0,0,0.025203,-0.00065423,0.0073647,-2.2227,0.010638,0.022925,3.7336e-07,0.31,0.09,0
0.014229,0.0052428,0.025405,-0.0005886,0.0074449,-0.00091966,0,0,0.046696,-0.020887,0,-0.0047823,0,0,0,0.025439,-0.0006225,0.0074449,-2.0256,0.010754,0.023109,3.8334e-07,0.32,0.09,0
0.014698,0.0053784,0.025648,-0.00054103,0.0075319,-0.0008329,0,0,0.0471,-0.02099,0,-0.0043311,0,0,0,0.025675,-0.00056882,0.0075319,-1.8209,0.010879,0.023276,3.932e-07,0.33,0.09,0
0.015171,0.0055209,0.025885,-0.00047401,0.0076233,-0.00074587,0,0,0.04748,-0.021053,0,-0.0038785,0,0,0,0.025907,-0.00049631,0.0076233,-1.62,0.011011,0.023424,4.0272e-07,0.34,0.09,0
0.015647,0.0056689,0.026113,-0.00039269,0.007716,-0.00066398,0,0,0.047832,-0.021083,0,-0.0034527,0,0,0,0.026131,-0.00041038,0.007716,-1.4341,0.011145,0.023554,4.1177e-07,0.35,0.09,0
0.016127,0.0058214,0.026329,-0.00030347,0.0078075,-0.0005913,0,0,0.048155,-0.021089,0,-0.0030748,0,0,0,0.026343,-0.0003175,0.0078075,-1.271,0.011278,0.023668,4.203e-07,0.36,0.09,0
0.01661,0.0059771,0.026531,-0.00021181,0.0078957,-0.00053033,0,0,0.048452,-0.02108,0,-0.0027577,0,0,0,0.026542,-0.00022309,0.0078957,-1.1351,0.011405,0.02377,4.283e-07,0.37,0.09,0
0.017096,0.0061346,0.02672,-0.00012182,0.0079794,-0.00048251,0,0,0.048725,-0.021063,0,-0.002509,0,0,0,0.026729,-0.00013113,0.0079794,-1.0289,0.011526,0.023862,4.358e-07,0.38,0.09,0
0.017585,0.0062928,0.026896,-3.6995e-05,0.0080576,-0.00044854,0,0,0.048979,-0.021046,0,-0.0023324,0,0,0,0.026904,-4.4999e-05,0.0080576,-0.95314,0.011639,0.023949,4.4288e-07,0.39,0.09,0
0.018076,0.0064506,0.02706,3.9422e-05,0.0081298,-0.00042833,0,0,0.049218,-0.021035,0,-0.0022273,0,0,0,0.027067,3.218e-05,0.0081298,-0.90719,0.011743,0.024032,4.4961e-07,0.4,0.09,0
0.018569,0.006607,0.027213,0.00010476,0.0081954,-0.0004208,0,0,0.049446,-0.021036,0,-0.0021882,0,0,0,0.02722,9.7839e-05,0.0081954,-0.88832,0.011838,0.024116,4.5611e-07,0.41,0.09,0
0.019065,0.006761,0.027358,0.00015735,0.0082545,-0.00042409,0,0,0.049668,-0.021053,0,-0.0022053,0,0,0,0.027365,0.00015039,0.0082545,-0.89223,0.011923,0.024202,4.6245e-07,0.42,0.09,0
0.019563,0.0069119,0.027494,0.00019666,0.0083073,-0.0004359,0,0,0.049886,-0.021088,0,-0.0022667,0,0,0,0.027501,0.00018938,0.0083073,-0.91379,0.011999,0.024293,4.6872e-07,0.43,0.09,0
0.020062,0.0070592,0.027624,0.00022312,0.008354,-0.00045385,0,0,0.050101,-0.02114,0,-0.00236,0,0,0,0.027632,0.00021532,0.008354,-0.94783,0.012067,0.024388,4.7493e-07,0.44,0.09,0
0.020565,0.0072024,0.027747,0.00023789,0.0083954,-0.00047572,0,0,0.050314,-0.02121,0,-0.0024737,0,0,0,0.027755,0.0002294,0.0083954,-0.98958,0.012127,0.024486,4.8109e-07,0.45,0.09,0
0.021069,0.0073411,0.027864,0.00024255,0.0084319,-0.00049962,0,0,0.050523,-0.021292,0,-0.002598,0,0,0,0.027873,0.00023328,0.0084319,-1.0351,0.012179,0.024588,4.8719e-07,0.46,0.09,0
0.021575,0.0074751,0.027975,0.00023888,0.0084642,-0.00052403,0,0,0.050728,-0.021386,0,-0.002725,0,0,0,0.027985,0.00022878,0.0084642,-1.0812,0.012226,0.024691,4.9319e-07,0.47,0.09,0
0.022083,0.0076043,0.028081,0.00022868,0.0084928,-0.00054779,0,0,0.050928,-0.021487,0,-0.0028485,0,0,0,0.028091,0.00021772,0.0084928,-1.1255,0.012267,0.024794,4.9907e-07,0.48,0.09,0
0.022594,0.0077285,0.02818,0.00021362,0.0085182,-0.00057006,0,0,0.051122,-0.021592,0,-0.0029643,0,0,0,0.028192,0.00020184,0.0085182,-1.1665,0.012304,0.024897,5.0479e-07,0.49,0.09,0
0.023106,0.0078478,0.028275,0.00019521,0.0085411,-0.00059028,0,0,0.051308,-0.021699,0,-0.0030695,0,0,0,0.028288,0.00018267,0.0085411,-1.203,0.012337,0.024997,5.1033e-07,0.5,0.09,0
0.02362,0.0079622,0.028365,0.00017474,0.0085618,-0.00060811,0,0,0.051487,-0.021806,0,-0.0031622,0,0,0,0.028378,0.00016151,0.0085618,-1.2345,0.012367,0.025094,5.1566e-07,0.51,0.09,0
0.024136,0.0080718,0.028449,0.00015326,0.0085808,-0.00062338,0,0,0.051658,-0.021912,0,-0.0032416,0,0,0,0.028463,0.00013942,0.0085808,-1.2608,0.012394,0.025187,5.2077e-07,0.52,0.09,0
0.024653,0.0081766,0.02853,0.00013159,0.0085983,-0.00063605,0,0,0.051821,-0.022014,0,-0.0033075,0,0,0,0.028544,0.00011725,0.0085983,-1.2818,0.01242,0.025277,5.2566e-07,0.53,0.09,0
0.025172,0.0082768,0.028605,0.00011035,0.0086148,-0.00064618,0,0,0.051976,-0.022111,0,-0.0033601,0,0,0,0.02862,9.5619e-05,0.0086148,-1.2978,0.012444,0.025362,5.3033e-07,0.54,0.09,0
0.025692,0.0083724,0.028678,8.9979e-05,0.0086303,-0.00065385,0,0,0.052123,-0.022205,0,-0.0034,0,0,0,0.028693,7.4958e-05,0.0086303,-1.309,0.012466,0.025443,5.3479e-07,0.55,0.09,0
0.026214,0.0084636,0.028746,7.0768e-05,0.0086451,-0.00065921,0,0,0.052263,-0.022293,0,-0.0034279,0,0,0,0.028761,5.5555e-05,0.0086451,-1.3157,0.012487,0.025519,5.3904e-07,0.56,0.09,0
0.026738,0.0085506,0.028812,5.2885e-05,0.0086594,-0.0006624,0,0,0.052396,-0.022377,0,-0.0034445,0,0,0,0.028827,3.7576e-05,0.0086594,-1.3183,0.012508,0.025592,5.431e-07,0.57,0.09,0
0.027262,0.0086334,0.028874,3.6406e-05,0.0086732,-0.00066358,0,0,0.052523,-0.022456,0,-0.0034506,0,0,0,0.02889,2.109e-05,0.0086732,-1.3171,0.012528,0.025661,5.4699e-07,0.58,0.09,0
0.027788,0.0087123,0.028935,2.1341e-05,0.0086867,-0.00066289,0,0,0.052644,-0.02253,0,-0.003447,0,0,0,0.02895,6.1003e-06,0.0086867,-1.3123,0.012548,0.025726,5.5071e-07,0.59,0.09,0
0.028315,0.0087873,0.028992,7.6501e-06,0.0087,-0.00066047,0,0,0.05276,-0.0226,0,-0.0034345,0,0,0,0.029007,-7.4388e-06,0.0087,-1.3043,0.012567,0.025788,5.5429e-07,0.6,0.09,0
0.028843,0.0088585,0.029048,-4.7339e-06,0.008713,-0.00065645,0,0,0.052871,-0.022666,0,-0.0034136,0,0,0,0.029063,-1.9603e-05,0.008713,-1.2934,0.012585,0.025847,5.5773e-07,0.61,0.09,0
0.029373,0.0089263,0.029102,-1.5898e-05,0.0087259,-0.00065096,0,0,0.052978,-0.022729,0,-0.003385,0,0,0,0.029117,-3.0484e-05,0.0087259,-1.2797,0.012604,0.025904,5.6104e-07,0.62,0.09,0
0.029903,0.0089905,0.029154,-2.5937e-05,0.0087385,-0.00064408,0,0,0.053081,-0.022788,0,-0.0033492,0,0,0,0.029169,-4.0185e-05,0.0087385,-1.2635,0.012622,0.025958,5.6425e-07,0.63,0.09,0
0.030434,0.0090515,0.029205,-3.4947e-05,0.0087511,-0.00063594,0,0,0.053181,-0.022844,0,-0.0033069,0,0,0,0.029219,-4.8809e-05,0.0087511,-1.245,0.01264,0.026009,5.6735e-07,0.64,0.09,0
0.030967,0.0091094,0.029254,-4.3022e-05,0.0087634,-0.00062662,0,0,0.053277,-0.022897,0,-0.0032584,0,0,0,0.029268,-5.6454e-05,0.0087634,-1.2244,0.012658,0.026059,5.7036e-07,0.65,0.09,0
0.0315,0.0091642,0.029302,-5.0251e-05,0.0087757,-0.00061621,0,0,0.05337,-0.022947,0,-0.0032043,0,0,0,0.029315,-6.3216e-05,0.0087757,-1.2019,0.012676,0.026107,5.7328e-07,0.66,0.09,0
0.032034,0.009216,0.029349,-5.6714e-05,0.0087877,-0.00060479,0,0,0.05346,-0.022996,0,-0.0031449,0,0,0,0.029362,-6.9181e-05,0.0087877,-1.1775,0.012693,0.026152,5.7611e-07,0.67,0.09,0
0.032569,0.0092652,0.029395,-6.2487e-05,0.0087996,-0.00059244,0,0,0.053547,-0.023041,0,-0.0030807,0,0,0,0.029407,-7.4429e-05,0.0087996,-1.1515,0.012711,0.026197,5.7887e-07,0.68,0.09,0
0.033105,0.0093116,0.029439,-6.7634e-05,0.0088113,-0.00057924,0,0,0.053631,-0.023085,0,-0.003012,0,0,0,0.02945,-7.9031e-05,0.0088113,-1.124,0.012727,0.026239,5.8154e-07,0.69,0.09,0
0.033642,0.0093555,0.029482,-7.2217e-05,0.0088228,-0.00056525,0,0,0.053713,-0.023127,0,-0.0029393,0,0,0,0.029493,-8.3054e-05,0.0088228,-1.0951,0.012744,0.02628,5.8414e-07,0.7,0.09,0
0.034179,0.0093969,0.029523,-7.6289e-05,0.0088341,-0.00055054,0,0,0.053792,-0.023167,0,-0.0028628,0,0,0,0.029534,-8.6554e-05,0.0088341,-1.065,0.01276,0.026319,5.8666e-07,0.71,0.09,0
0.034717,0.0094361,0.029564,-7.9898e-05,0.0088452,-0.00053518,0,0,0.053869,-0.023205,0,-0.002783,0,0,0,0.029574,-8.9584e-05,0.0088452,-1.0338,0.012776,0.026357,5.891e-07,0.72,0.09,0
0.035257,0.009473,0.029603,-8.3088e-05,0.008856,-0.00051923,0,0,0.053943,-0.023242,0,-0.0027,0,0,0,0.029612,-9.2193e-05,0.008856,-1.0016,0.012792,0.026394,5.9147e-07,0.73,0.09,0
0.035796,0.0095077,0.029641,-8.5897e-05,0.0088666,-0.00050275,0,0,0.054014,-0.023277,0,-0.0026143,0,0,0,0.02965,-9.4423e-05,0.0088666,-0.96845,0.012807,0.026429,5.9376e-07,0.74,0.09,0
0.036337,0.0095405,0.029678,-8.8363e-05,0.0088769,-0.00048578,0,0,0.054083,-0.02331,0,-0.0025261,0,0,0,0.029686,-9.6313e-05,0.0088769,-0.93457,0.012822,0.026462,5.9597e-07,0.75,0.09,0
0.036878,0.0095712,0.029714,-9.0517e-05,0.0088869,-0.00046839,0,0,0.054149,-0.023341,0,-0.0024356,0,0,0,0.029721,-9.7899e-05,0.0088869,-0.89999,0.012837,0.026495,5.9811e-07,0.76,0.09,0
0.03742,0.0096002,0.029748,-9.239e-05,0.0088966,-0.00045062,0,0,0.054213,-0.023371,0,-0.0023432,0,0,0,0.029755,-9.9215e-05,0.0088966,-0.86482,0.012851,0.026526,6.0017e-07,0.77,0.09,0
0.037962,0.0096273,0.029781,-9.401e-05,0.008906,-0.0004325,0,0,0.054274,-0.0234,0,-0.002249,0,0,0,0.029787,-0.00010029,0.008906,-0.82912,0.012864,0.026555,6.0215e-07,0.78,0.09,0
0.038505,0.0096527,0.029812,-9.5403e-05,0.0089151,-0.00041409,0,0,0.054333,-0.023427,0,-0.0021533,0,0,0,0.029818,-0.00010116,0.0089151,-0.79298,0.012877,0.026584,6.0405e-07,0.79,0.09,0
0.039049,0.0096765,0.029842,-9.6593e-05,0.0089238,-0.00039542,0,0,0.054389,-0.023453,0,-0.0020562,0,0,0,0.029848,-0.00010183,0.0089238,-0.75645,0.01289,0.026611,6.0586e-07,0.8,0.09,0
0.039593,0.0096988,0.029871,-9.7602e-05,0.0089321,-0.00037653,0,0,0.054442,-0.023477,0,-0.0019579,0,0,0,0.029876,-0.00010235,0.0089321,-0.7196,0.012902,0.026636,6.076e-07,0.81,0.09,0
0.040138,0.0097195,0.029899,-9.8451e-05,0.0089401,-0.00035743,0,0,0.054492,-0.0235,0,-0.0018587,0,0,0,0.029903,-0.00010273,0.0089401,-0.68248,0.012913,0.02666,6.0925e-07,0.82,0.09,0
0.040683,0.0097388,0.029925,-9.9159e-05,0.0089477,-0.00033817,0,0,0.05454,-0.023522,0,-0.0017585,0,0,0,0.029929,-0.00010298,0.0089477,-0.64515,0.012924,0.026683,6.1082e-07,0.83,0.09,0
0.041229,0.0097567,0.029949,-9.9744e-05,0.0089549,-0.00031877,0,0,0.054586,-0.023542,0,-0.0016576,0,0,0,0.029953,-0.00010314,0.0089549,-0.60763,0.012935,0.026705,6.1231e-07,0.84,0.09,0
0.041775,0.0097732,0.029973,-0.00010022,0.0089617,-0.00029924,0,0,0.054628,-0.023561,0,-0.001556,0,0,0,0.029976,-0.00010321,0.0089617,-0.56996,0.012945,0.026725,6.137e-07,0.85,0.09,0
0.042321,0.0097885,0.029994,-0.00010061,0.0089681,-0.00027961,0,0,0.054668,-0.023579,0,-0.0014539,0,0,0,0.029997,-0.00010322,0.0089681,-0.53219,0.012954,0.026744,6.1502e-07,0.86,0.09,0
0.042868,0.0098025,0.030015,-0.00010091,0.0089741,-0.00025988,0,0,0.054705,-0.023595,0,-0.0013514,0,0,0,0.030017,-0.00010317,0.0089741,-0.49432,0.012963,0.026762,6.1624e-07,0.87,0.09,0
0.043415,0.0098154,0.030034,-0.00010115,0.0089797,-0.00024009,0,0,0.05474,-0.02361,0,-0.0012485,0,0,0,0.030035,-0.00010308,0.0089797,-0.45639,0.012971,0.026778,6.1738e-07,0.88,0.09,0
0.043963,0.009827,0.030051,-0.00010134,0.0089849,-0.00022024,0,0,0.054772,-0.023624,0,-0.0011452,0,0,0,0.030053,-0.00010295,0.0089849,-0.41841,0.012978,0.026794,6.1843e-07,0.89,0.09,0
0.044511,0.0098376,0.030067,-0.00010147,0.0089896,-0.00020033,0,0,0.054801,-0.023637,0,-0.0010417,0,0,0,0.030068,-0.00010281,0.0089896,-0.3804,0.012985,0.026807,6.1939e-07,0.9,0.09,0
0.045059,0.009847,0.030081,-0.00010157,0.0089939,-0.00018039,0,0,0.054827,-0.023648,0,-0.00093802,0,0,0,0.030082,-0.00010266,0.0089939,-0.34237,0.012991,0.02682,6.2026e-07,0.91,0.09,0
0.045607,0.0098554,0.030094,-0.00010165,0.0089977,-0.00016041,0,0,0.054851,-0.023658,0,-0.00083414,0,0,0,0.030095,-0.00010251,0.0089977,-0.30433,0.012997,0.026831,6.2104e-07,0.92,0.09,0
0.046156,0.0098627,0.030106,-0.00010169,0.0090012,-0.00014041,0,0,0.054871,-0.023667,0,-0.00073012,0,0,0,0.030106,-0.00010235,0.0090012,-0.26628,0.013002,0.026841,6.2173e-07,0.93,0.09,0
0.046705,0.009869,0.030115,-0.00010172,0.0090041,-0.00012038,0,0,0.054889,-0.023675,0,-0.00062599,0,0,0,0.030116,-0.00010221,0.0090041,-0.22823,0.013006,0.026849,6.2233e-07,0.94,0.09,0
0.047254,0.0098743,0.030124,-0.00010174,0.0090066,-0.00010034,0,0,0.054905,-0.023682,0,-0.00052177,0,0,0,0.030124,-0.00010208,0.0090066,-0.19018,0.01301,0.026857,6.2283e-07,0.95,0.09,0
0.047803,0.0098786,0.030131,-0.00010175,0.0090087,-8.0286e-05,0,0,0.054917,-0.023687,0,-0.00041749,0,0,0,0.030131,-0.00010197,0.0090087,-0.15214,0.013013,0.026862,6.2325e-07,0.96,0.09,0
0.048352,0.009882,0.030136,-0.00010176,0.0090103,-6.0222e-05,0,0,0.054927,-0.023691,0,-0.00031315,0,0,0,0.030136,-0.00010188,0.0090103,-0.1141,0.013015,0.026867,6.2357e-07,0.97,0.09,0
0.048901,0.0098844,0.03014,-0.00010176,0.0090114,-4.0151e-05,0,0,0.054934,-0.023694,0,-0.00020879,0,0,0,0.03014,-0.00010182,0.0090114,-0.076062,0.013017,0.02687,6.238e-07,0.98,0.09,0
0.049451,0.0098858,0.030142,-0.00010176,0.0090121,-1.7794e-05,0,0,0.054938,-0.023696,0,-9.2529e-05,0,0,0,0.030142,-0.00010178,0.0090121,-0.033705,0.013018,0.026872,6.2394e-07,0.99,0.09,0
0.049725,0.0098863,0.030143,-0.00010176,0.0090123,-5.473e-06,0,0,0.054939,-0.023697,0,-2.846e-05,0,0,0,0.030143,-0.00010177,0.0090123,-0.010365,0.013018,0.026873,6.2399e-07,1,0.09,0
0.00019777,0.00018505,0.026609,0.011138,0.011324,0.0070928,0,0,0.03974,-0.00048395,0,0.036883,0,0,0,0.029369,0.0083773,0.011324,21.259,0.016357,0.019685,3.6232e-07,0,0.1,0
0.0003974,0.00036846,0.026646,0.010849,0.011248,0.0070373,0,0,0.040033,-0.0010386,0,0.036594,0,0,0,0.029328,0.008166,0.011248,20.855,0.016248,0.019803,3.6641e-07,0.01,0.1,0
0.00080066,0.00073105,0.02677,0.010229,0.0111,0.0068707,0,0,0.040744,-0.002265,0,0.035728,0,0,0,0.029257,0.0077424,0.0111,19.866,0.016033,0.020048,3.7497e-07,0.02,0.1,0
0.0012123,0.0010833,0.02694,0.009526,0.01094,0.0065995,0,0,0.0416,-0.0036759,0,0.034317,0,0,0,0.029165,0.007301,0.01094,18.59,0.015802,0.020292,3.8291e-07,0.03,0.1,0
0.0016327,0.0014215,0.027087,0.0087663,0.010756,0.0062342,0,0,0.04246,-0.0051729,0,0.032418,0,0,0,0.029015,0.0068381,0.010756,17.129,0.015536,0.020502,3.8852e-07,0.04,0.1,0
0.0020615,0.0017419,0.027194,0.0079906,0.010555,0.0057871,0,0,0.04326,-0.0066682,0,0.030093,0,0,0,0.028812,0.0063723,0.010555,15.549,0.015247,0.020669,3.9148e-07,0.05,0.1,0
0.0024979,0.0020414,0.027249,0.0072296,0.010344,0.0052775,0,0,0.043955,-0.0080966,0,0.027443,0,0,0,0.028565,0.0059138,0.010344,13.91,0.014941,0.020794,3.9191e-07,0.06,0.1,0
0.0029406,0.0023177,0.027248,0.0065027,0.010125,0.0047281,0,0,0.044519,-0.0094185,0,0.024586,0,0,0,0.028285,0.0054661,0.010125,12.262,0.014625,0.020884,3.9025e-07,0.07,0.1,0
0.0033882,0.0025692,0.02719,0.0058193,0.0099028,0.0041613,0,0,0.044947,-0.010617,0,0.021639,0,0,0,0.027981,0.005028,0.0099028,10.648,0.014304,0.020947,3.8705e-07,0.08,0.1,0
0.0038395,0.0027953,0.027079,0.0051814,0.0096782,0.0035971,0,0,0.045243,-0.011692,0,0.018705,0,0,0,0.027664,0.0045967,0.0096782,9.1018,0.01398,0.020994,3.8282e-07,0.09,0.1,0
0.0042931,0.0029961,0.026922,0.0045872,0.0094526,0.0030514,0,0,0.045419,-0.01265,0,0.015867,0,0,0,0.027339,0.0041696,0.0094526,7.6494,0.013654,0.021032,3.7796e-07,0.1,0.1,0
0.0047479,0.0031725,0.026723,0.0040333,0.009227,0.0025363,0,0,0.04549,-0.013504,0,0.013189,0,0,0,0.027011,0.0037459,0.009227,6.3083,0.013328,0.021067,3.7268e-07,0.11,0.1,0
0.0052029,0.0033259,0.026491,0.0035157,0.0090021,0.0020595,0,0,0.045472,-0.014265,0,0.010709,0,0,0,0.026681,0.0033261,0.0090021,5.0888,0.013003,0.021098,3.6709e-07,0.12,0.1,0
0.0056573,0.0034583,0.026232,0.0030303,0.0087788,0.0016256,0,0,0.045379,-0.014946,0,0.0084531,0,0,0,0.026351,0.0029112,0.0087788,3.995,0.012681,0.021127,3.6122e-07,0.13,0.1,0
0.0061105,0.0035719,0.025952,0.0025737,0.0085577,0.0012375,0,0,0.045225,-0.015558,0,0.006435,0,0,0,0.026022,0.0025034,0.0085577,3.0281,0.012361,0.021152,3.5507e-07,0.14,0.1,0
0.0065618,0.0036694,0.025655,0.0021464,0.0083404,0.00089609,0,0,0.045018,-0.016104,0,0.0046597,0,0,0,0.025693,0.0021079,0.0083404,2.1861,0.012047,0.021169,3.4856e-07,0.15,0.1,0
0.0070109,0.0037537,0.025348,0.0017537,0.0081304,0.00059889,0,0,0.044765,-0.01658,0,0.0031142,0,0,0,0.025367,0.0017346,0.0081304,1.4595,0.011744,0.021172,3.4163e-07,0.16,0.1,0
0.0074571,0.0038276,0.025038,0.0014006,0.0079317,0.00033971,0,0,0.044478,-0.016981,0,0.0017665,0,0,0,0.025047,0.0013922,0.0079317,0.83,0.011457,0.021157,3.3435e-07,0.17,0.1,0
0.0079004,0.0038941,0.024735,0.0010858,0.0077463,0.00011208,0,0,0.044171,-0.017317,0,0.0005828,0,0,0,0.024739,0.0010823,0.0077463,0.27879,0.011189,0.021128,3.2697e-07,0.18,0.1,0
0.0083406,0.0039558,0.024446,0.0008092,0.0075766,-8.8049e-05,0,0,0.043861,-0.017595,0,-0.00045785,0,0,0,0.024449,0.00080643,0.0075766,-0.20599,0.010944,0.021089,3.1978e-07,0.19,0.1,0
0.0087776,0.0040156,0.024181,0.00058028,0.0074284,-0.00026602,0,0,0.043557,-0.017805,0,-0.0013833,0,0,0,0.024186,0.00057534,0.0074284,-0.63852,0.01073,0.021039,3.1297e-07,0.2,0.1,0
0.0092117,0.0040754,0.02395,0.00040711,0.0073072,-0.00043295,0,0,0.043272,-0.01794,0,-0.0022513,0,0,0,0.02396,0.00039763,0.0073072,-1.0466,0.010555,0.020979,3.0684e-07,0.21,0.1,0
0.0096431,0.0041368,0.023765,0.00027889,0.0072131,-0.00060112,0,0,0.043034,-0.018029,0,-0.0031258,0,0,0,0.023781,0.00026236,0.0072131,-1.4599,0.010419,0.020928,3.0196e-07,0.22,0.1,0
0.010072,0.0042006,0.023636,0.0001702,0.0071419,-0.00077516,0,0,0.042885,-0.018127,0,-0.0040308,0,0,0,0.023663,0.00014378,0.0071419,-1.8866,0.010316,0.020917,2.9913e-07,0.23,0.1,0
0.010501,0.0042674,0.023575,5.7252e-05,0.0070897,-0.00094912,0,0,0.042862,-0.018284,0,-0.0049354,0,0,0,0.023614,1.8345e-05,0.0070897,-2.3065,0.010241,0.020974,2.9902e-07,0.24,0.1,0
0.01093,0.004338,0.023588,-7.2915e-05,0.0070546,-0.0011099,0,0,0.042987,-0.018531,0,-0.0057716,0,0,0,0.023641,-0.00012552,0.0070546,-2.6816,0.01019,0.021113,3.0198e-07,0.25,0.1,0
0.011361,0.0044134,0.023675,-0.00022133,0.007036,-0.0012422,0,0,0.04326,-0.018869,0,-0.0064594,0,0,0,0.02374,-0.00028655,0.007036,-2.9718,0.010163,0.02133,3.0794e-07,0.26,0.1,0
0.011795,0.004495,0.023827,-0.00037669,0.0070352,-0.0013324,0,0,0.043659,-0.019271,0,-0.0069286,0,0,0,0.023901,-0.00045094,0.0070352,-3.147,0.010162,0.021605,3.1642e-07,0.27,0.1,0
0.012234,0.0045843,0.024035,-0.00051621,0.0070555,-0.0013742,0,0,0.044146,-0.019687,0,-0.0071461,0,0,0,0.024113,-0.00059438,0.0070555,-3.2,0.010191,0.021908,3.2673e-07,0.28,0.1,0
0.012678,0.0046826,0.024285,-0.00061603,0.0071006,-0.0013721,0,0,0.044679,-0.020063,0,-0.007135,0,0,0,0.024362,-0.00069322,0.0071006,-3.1503,0.010256,0.022209,3.3817e-07,0.29,0.1,0
0.013127,0.0047904,0.024566,-0.00066855,0.0071692,-0.0013377,0,0,0.045231,-0.020378,0,-0.0069558,0,0,0,0.024639,-0.00074131,0.0071692,-3.0308,0.010356,0.022493,3.5033e-07,0.3,0.1,0
0.013582,0.0049077,0.024866,-0.00068508,0.0072544,-0.0012802,0,0,0.045791,-0.020643,0,-0.0066572,0,0,0,0.024933,-0.00075128,0.0072544,-2.8649,0.010479,0.022763,3.6299e-07,0.31,0.1,0
0.014043,0.005034,0.025175,-0.00067561,0.0073499,-0.0012032,0,0,0.046346,-0.020866,0,-0.0062569,0,0,0,0.025233,-0.00073374,0.0073499,-2.6617,0.010617,0.023016,3.7586e-07,0.32,0.1,0
0.014509,0.0051683,0.025484,-0.00063795,0.0074537,-0.0011106,0,0,0.046878,-0.021038,0,-0.0057749,0,0,0,0.025533,-0.00068719,0.0074537,-2.4313,0.010766,0.023245,3.8855e-07,0.33,0.1,0
0.014981,0.0053099,0.025783,-0.00057066,0.0075636,-0.0010106,0,0,0.04737,-0.021149,0,-0.0052553,0,0,0,0.025823,-0.00061122,0.0075636,-2.1932,0.010925,0.023442,4.0065e-07,0.34,0.1,0
0.015457,0.0054576,0.026066,-0.00048174,0.0076752,-0.00091287,0,0,0.047815,-0.021208,0,-0.004747,0,0,0,0.026099,-0.00051468,0.0076752,-1.9667,0.011086,0.023609,4.1195e-07,0.35,0.1,0
0.015937,0.00561,0.026329,-0.0003819,0.0077841,-0.00082324,0,0,0.048216,-0.021231,0,-0.0042808,0,0,0,0.026355,-0.00040858,0.0077841,-1.7628,0.011244,0.023752,4.2242e-07,0.36,0.1,0
0.016421,0.0057657,0.026572,-0.00027784,0.0078881,-0.00074476,0,0,0.048577,-0.021232,0,-0.0038727,0,0,0,0.026593,-0.00029957,0.0078881,-1.5866,0.011394,0.023876,4.3207e-07,0.37,0.1,0
0.016908,0.0059234,0.026795,-0.00017345,0.0079863,-0.00067971,0,0,0.048901,-0.021215,0,-0.0035345,0,0,0,0.026813,-0.00019145,0.0079863,-1.4417,0.011536,0.023985,4.4095e-07,0.38,0.1,0
0.017399,0.0060818,0.026999,-7.2972e-05,0.0080777,-0.00063,0,0,0.049195,-0.021192,0,-0.003276,0,0,0,0.027014,-8.833e-05,0.0080777,-1.3312,0.011668,0.024081,4.4913e-07,0.39,0.1,0
0.017892,0.0062397,0.027186,1.8692e-05,0.0081614,-0.00059626,0,0,0.049464,-0.021171,0,-0.0031006,0,0,0,0.0272,5.0361e-06,0.0081614,-1.2555,0.011789,0.024172,4.5677e-07,0.4,0.1,0
0.018388,0.0063961,0.027359,9.7389e-05,0.0082369,-0.00057745,0,0,0.049718,-0.021163,0,-0.0030028,0,0,0,0.027372,8.468e-05,0.0082369,-1.2118,0.011898,0.024261,4.6404e-07,0.41,0.1,0
0.018887,0.00655,0.02752,0.00016067,0.0083042,-0.00057127,0,0,0.049961,-0.021173,0,-0.0029706,0,0,0,0.027532,0.00014833,0.0083042,-1.1946,0.011995,0.024353,4.7108e-07,0.42,0.1,0
0.019388,0.0067006,0.027671,0.00020785,0.0083636,-0.00057484,0,0,0.050198,-0.021205,0,-0.0029892,0,0,0,0.027683,0.00019546,0.0083636,-1.1975,0.012081,0.024449,4.7798e-07,0.43,0.1,0
0.019891,0.0068473,0.027812,0.00023958,0.0084156,-0.00058533,0,0,0.050432,-0.021258,0,-0.0030437,0,0,0,0.027825,0.00022683,0.0084156,-1.2145,0.012156,0.024551,4.848e-07,0.44,0.1,0
0.020396,0.0069898,0.027946,0.0002574,0.008461,-0.00060022,0,0,0.050661,-0.021329,0,-0.0031211,0,0,0,0.027959,0.00024411,0.008461,-1.2402,0.012221,0.024656,4.9154e-07,0.45,0.1,0
0.020904,0.0071276,0.028072,0.00026333,0.0085006,-0.00061741,0,0,0.050885,-0.021417,0,-0.0032105,0,0,0,0.028086,0.00024938,0.0085006,-1.2703,0.012279,0.024764,4.9816e-07,0.46,0.1,0
0.021414,0.0072607,0.02819,0.00025959,0.008535,-0.00063532,0,0,0.051104,-0.021516,0,-0.0033037,0,0,0,0.028205,0.00024493,0.008535,-1.3014,0.012328,0.024874,5.0464e-07,0.47,0.1,0
0.021926,0.0073888,0.028302,0.00024833,0.008565,-0.00065276,0,0,0.051315,-0.021623,0,-0.0033943,0,0,0,0.028317,0.00023296,0.008565,-1.3313,0.012372,0.024983,5.1093e-07,0.48,0.1,0
0.02244,0.0075119,0.028406,0.00023156,0.0085913,-0.00066891,0,0,0.051518,-0.021735,0,-0.0034784,0,0,0,0.028422,0.00021553,0.0085913,-1.3585,0.01241,0.02509,5.17e-07,0.49,0.1,0
0.022956,0.0076301,0.028504,0.00021105,0.0086144,-0.00068328,0,0,0.051712,-0.021849,0,-0.003553,0,0,0,0.02852,0.00019441,0.0086144,-1.3819,0.012443,0.025194,5.2283e-07,0.5,0.1,0
0.023474,0.0077434,0.028595,0.00018826,0.008635,-0.00069555,0,0,0.051896,-0.021962,0,-0.0036169,0,0,0,0.028612,0.00017112,0.008635,-1.4011,0.012473,0.025295,5.2839e-07,0.51,0.1,0
0.023994,0.0078519,0.028681,0.00016439,0.0086535,-0.00070563,0,0,0.052071,-0.022072,0,-0.0036693,0,0,0,0.028698,0.00014684,0.0086535,-1.4159,0.0125,0.02539,5.3366e-07,0.52,0.1,0
0.024516,0.0079557,0.028761,0.00014036,0.0086704,-0.00071349,0,0,0.052235,-0.022178,0,-0.0037102,0,0,0,0.028779,0.0001225,0.0086704,-1.4266,0.012524,0.025481,5.3866e-07,0.53,0.1,0
0.025039,0.0080548,0.028836,0.00011686,0.0086858,-0.00071921,0,0,0.05239,-0.022279,0,-0.0037399,0,0,0,0.028854,9.878e-05,0.0086858,-1.4331,0.012546,0.025567,5.4339e-07,0.54,0.1,0
0.025564,0.0081495,0.028906,9.4344e-05,0.0087002,-0.0007229,0,0,0.052536,-0.022375,0,-0.0037591,0,0,0,0.028924,7.6151e-05,0.0087002,-1.4358,0.012567,0.025648,5.4785e-07,0.55,0.1,0
0.02609,0.0082399,0.028973,7.3125e-05,0.0087137,-0.00072467,0,0,0.052673,-0.022466,0,-0.0037683,0,0,0,0.028991,5.4906e-05,0.0087137,-1.4351,0.012587,0.025724,5.5207e-07,0.56,0.1,0
0.026617,0.008326,0.029035,5.3371e-05,0.0087266,-0.00072467,0,0,0.052803,-0.02255,0,-0.0037683,0,0,0,0.029053,3.5211e-05,0.0087266,-1.431,0.012605,0.025795,5.5606e-07,0.57,0.1,0
0.027146,0.008408,0.029095,3.5153e-05,0.008739,-0.000723,0,0,0.052925,-0.02263,0,-0.0037596,0,0,0,0.029113,1.7128e-05,0.008739,-1.424,0.012623,0.025862,5.5984e-07,0.58,0.1,0
0.027676,0.0084861,0.029151,1.8469e-05,0.0087509,-0.00071979,0,0,0.053041,-0.022704,0,-0.0037429,0,0,0,0.029169,6.5267e-07,0.0087509,-1.4141,0.01264,0.025925,5.6344e-07,0.59,0.1,0
0.028207,0.0085604,0.029205,3.2704e-06,0.0087625,-0.00071514,0,0,0.053151,-0.022774,0,-0.0037187,0,0,0,0.029223,-1.4272e-05,0.0087625,-1.4017,0.012657,0.025985,5.6686e-07,0.6,0.1,0
0.028739,0.008631,0.029257,-1.0521e-05,0.0087739,-0.00070913,0,0,0.053256,-0.02284,0,-0.0036875,0,0,0,0.029274,-2.7729e-05,0.0087739,-1.3868,0.012673,0.026042,5.7014e-07,0.61,0.1,0
0.029272,0.0086981,0.029307,-2.3001e-05,0.0087851,-0.00070184,0,0,0.053356,-0.022901,0,-0.0036496,0,0,0,0.029324,-3.982e-05,0.0087851,-1.3697,0.01269,0.026095,5.7328e-07,0.62,0.1,0
0.029806,0.0087618,0.029355,-3.4271e-05,0.0087961,-0.00069334,0,0,0.053452,-0.022959,0,-0.0036054,0,0,0,0.029371,-5.0652e-05,0.0087961,-1.3504,0.012706,0.026146,5.7629e-07,0.63,0.1,0
0.030341,0.0088223,0.029401,-4.4434e-05,0.008807,-0.00068371,0,0,0.053545,-0.023014,0,-0.0035553,0,0,0,0.029417,-6.0332e-05,0.008807,-1.3292,0.012721,0.026195,5.792e-07,0.64,0.1,0
0.030877,0.0088796,0.029446,-5.3588e-05,0.0088177,-0.00067301,0,0,0.053634,-0.023065,0,-0.0034996,0,0,0,0.029461,-6.8963e-05,0.0088177,-1.306,0.012737,0.026241,5.82e-07,0.65,0.1,0
0.031413,0.0089339,0.02949,-6.1823e-05,0.0088283,-0.00066129,0,0,0.053719,-0.023114,0,-0.0034387,0,0,0,0.029504,-7.6641e-05,0.0088283,-1.2811,0.012752,0.026285,5.8471e-07,0.66,0.1,0
0.031951,0.0089853,0.029532,-6.9224e-05,0.0088388,-0.00064862,0,0,0.053802,-0.023161,0,-0.0033728,0,0,0,0.029546,-8.3457e-05,0.0088388,-1.2544,0.012767,0.026328,5.8733e-07,0.67,0.1,0
0.032489,0.0090339,0.029573,-7.5867e-05,0.0088491,-0.00063506,0,0,0.053882,-0.023205,0,-0.0033023,0,0,0,0.029587,-8.9489e-05,0.0088491,-1.2263,0.012782,0.026369,5.8987e-07,0.68,0.1,0
0.033029,0.0090799,0.029613,-8.182e-05,0.0088593,-0.00062067,0,0,0.053959,-0.023247,0,-0.0032275,0,0,0,0.029626,-9.4813e-05,0.0088593,-1.1967,0.012797,0.026408,5.9233e-07,0.69,0.1,0
0.033569,0.0091234,0.029651,-8.7145e-05,0.0088693,-0.0006055,0,0,0.054034,-0.023287,0,-0.0031486,0,0,0,0.029664,-9.9493e-05,0.0088693,-1.1658,0.012811,0.026445,5.9471e-07,0.7,0.1,0
0.034109,0.0091645,0.029689,-9.1898e-05,0.0088791,-0.00058962,0,0,0.054106,-0.023325,0,-0.003066,0,0,0,0.029701,-0.00010359,0.0088791,-1.1336,0.012825,0.026481,5.9702e-07,0.71,0.1,0
0.034651,0.0092032,0.029725,-9.6128e-05,0.0088888,-0.00057309,0,0,0.054175,-0.023361,0,-0.0029801,0,0,0,0.029737,-0.00010716,0.0088888,-1.1004,0.012839,0.026516,5.9925e-07,0.72,0.1,0
0.035193,0.0092398,0.029761,-9.9882e-05,0.0088983,-0.00055595,0,0,0.054243,-0.023395,0,-0.002891,0,0,0,0.029771,-0.00011025,0.0088983,-1.0661,0.012853,0.026549,6.0141e-07,0.73,0.1,0
0.035736,0.0092742,0.029795,-0.0001032,0.0089075,-0.00053827,0,0,0.054307,-0.023428,0,-0.002799,0,0,0,0.029805,-0.00011291,0.0089075,-1.0309,0.012866,0.026581,6.035e-07,0.74,0.1,0
0.036279,0.0093066,0.029828,-0.00010613,0.0089166,-0.0005201,0,0,0.05437,-0.023459,0,-0.0027045,0,0,0,0.029837,-0.00011518,0.0089166,-0.99495,0.012879,0.026612,6.0551e-07,0.75,0.1,0
0.036823,0.0093371,0.02986,-0.00010869,0.0089254,-0.00050148,0,0,0.05443,-0.023489,0,-0.0026077,0,0,0,0.029868,-0.0001171,0.0089254,-0.95826,0.012892,0.026641,6.0745e-07,0.76,0.1,0
0.037368,0.0093657,0.029891,-0.00011093,0.0089339,-0.00048246,0,0,0.054487,-0.023517,0,-0.0025088,0,0,0,0.029898,-0.0001187,0.0089339,-0.92094,0.012905,0.026669,6.0932e-07,0.77,0.1,0
0.037913,0.0093926,0.02992,-0.00011287,0.0089422,-0.00046309,0,0,0.054543,-0.023543,0,-0.0024081,0,0,0,0.029927,-0.00012003,0.0089422,-0.88306,0.012916,0.026696,6.1111e-07,0.78,0.1,0
0.038458,0.0094178,0.029948,-0.00011455,0.0089502,-0.0004434,0,0,0.054595,-0.023568,0,-0.0023057,0,0,0,0.029955,-0.00012111,0.0089502,-0.84471,0.012928,0.026721,6.1283e-07,0.79,0.1,0
0.039005,0.0094413,0.029976,-0.00011599,0.0089579,-0.00042344,0,0,0.054646,-0.023592,0,-0.0022019,0,0,0,0.029981,-0.00012196,0.0089579,-0.80594,0.012939,0.026746,6.1448e-07,0.8,0.1,0
0.039551,0.0094633,0.030001,-0.00011721,0.0089653,-0.00040324,0,0,0.054694,-0.023614,0,-0.0020968,0,0,0,0.030007,-0.00012263,0.0089653,-0.76682,0.01295,0.026769,6.1605e-07,0.81,0.1,0
0.040099,0.0094838,0.030026,-0.00011825,0.0089723,-0.00038283,0,0,0.05474,-0.023636,0,-0.0019907,0,0,0,0.030031,-0.00012313,0.0089723,-0.7274,0.01296,0.02679,6.1754e-07,0.82,0.1,0
0.040646,0.0095029,0.030049,-0.00011912,0.0089791,-0.00036223,0,0,0.054783,-0.023655,0,-0.0018836,0,0,0,0.030054,-0.00012348,0.0089791,-0.68773,0.01297,0.026811,6.1896e-07,0.83,0.1,0
0.041194,0.0095206,0.030072,-0.00011984,0.0089855,-0.00034148,0,0,0.054824,-0.023674,0,-0.0017757,0,0,0,0.030075,-0.00012372,0.0089855,-0.64785,0.012979,0.02683,6.203e-07,0.84,0.1,0
0.041743,0.009537,0.030092,-0.00012044,0.0089916,-0.00032059,0,0,0.054862,-0.023691,0,-0.0016671,0,0,0,0.030096,-0.00012385,0.0089916,-0.6078,0.012988,0.026849,6.2156e-07,0.85,0.1,0
0.042291,0.0095521,0.030112,-0.00012092,0.0089973,-0.00029958,0,0,0.054898,-0.023707,0,-0.0015578,0,0,0,0.030115,-0.0001239,0.0089973,-0.56762,0.012996,0.026866,6.2274e-07,0.86,0.1,0
0.042841,0.009566,0.03013,-0.00012131,0.0090027,-0.00027848,0,0,0.054932,-0.023722,0,-0.0014481,0,0,0,0.030133,-0.00012389,0.0090027,-0.52732,0.013004,0.026882,6.2385e-07,0.87,0.1,0
0.04339,0.0095786,0.030147,-0.00012162,0.0090076,-0.0002573,0,0,0.054963,-0.023736,0,-0.0013379,0,0,0,0.030149,-0.00012382,0.0090076,-0.48693,0.013011,0.026896,6.2487e-07,0.88,0.1,0
0.04394,0.0095902,0.030163,-0.00012187,0.0090123,-0.00023604,0,0,0.054991,-0.023749,0,-0.0012274,0,0,0,0.030165,-0.00012372,0.0090123,-0.44648,0.013018,0.02691,6.2582e-07,0.89,0.1,0
0.04449,0.0096006,0.030177,-0.00012205,0.0090165,-0.00021473,0,0,0.055017,-0.02376,0,-0.0011166,0,0,0,0.030179,-0.00012359,0.0090165,-0.40598,0.013024,0.026922,6.2668e-07,0.9,0.1,0
0.04504,0.0096099,0.03019,-0.0001222,0.0090203,-0.00019337,0,0,0.055041,-0.023771,0,-0.0010055,0,0,0,0.030191,-0.00012344,0.0090203,-0.36544,0.013029,0.026933,6.2747e-07,0.91,0.1,0
0.045591,0.0096182,0.030202,-0.0001223,0.0090238,-0.00017196,0,0,0.055062,-0.02378,0,-0.00089421,0,0,0,0.030203,-0.00012328,0.0090238,-0.32487,0.013034,0.026943,6.2817e-07,0.92,0.1,0
0.046141,0.0096254,0.030212,-0.00012237,0.0090268,-0.00015053,0,0,0.055081,-0.023788,0,-0.00078275,0,0,0,0.030213,-0.00012313,0.0090268,-0.28428,0.013039,0.026952,6.2879e-07,0.93,0.1,0
0.046692,0.0096317,0.030221,-0.00012243,0.0090295,-0.00012907,0,0,0.055097,-0.023795,0,-0.00067115,0,0,0,0.030221,-0.00012298,0.0090295,-0.24368,0.013043,0.02696,6.2933e-07,0.94,0.1,0
0.047243,0.0096369,0.030228,-0.00012246,0.0090318,-0.00010759,0,0,0.055111,-0.023801,0,-0.00055945,0,0,0,0.030229,-0.00012285,0.0090318,-0.20308,0.013046,0.026966,6.2979e-07,0.95,0.1,0
0.047795,0.0096412,0.030234,-0.00012248,0.0090336,-8.6087e-05,0,0,0.055122,-0.023806,0,-0.00044765,0,0,0,0.030235,-0.00012274,0.0090336,-0.16246,0.013049,0.026971,6.3016e-07,0.96,0.1,0
0.048346,0.0096445,0.030239,-0.0001225,0.009035,-6.4576e-05,0,0,0.055131,-0.02381,0,-0.00033579,0,0,0,0.030239,-0.00012264,0.009035,-0.12185,0.013051,0.026975,6.3046e-07,0.97,0.1,0
0.048897,0.0096469,0.030243,-0.00012251,0.0090361,-4.3055e-05,0,0,0.055137,-0.023812,0,-0.00022389,0,0,0,0.030243,-0.00012257,0.0090361,-0.081232,0.013052,0.026978,6.3066e-07,0.98,0.1,0
0.049449,0.0096483,0.030245,-0.00012251,0.0090367,-1.9274e-05,0,0,0.055141,-0.023814,0,-0.00010022,0,0,0,0.030245,-0.00012253,0.0090367,-0.03636,0.013053,0.02698,6.3079e-07,0.99,0.1,0
0.049724,0.0096487,0.030245,-0.00012251,0.0090369,-6.2538e-06,0,0,0.055142,-0.023814,0,-3.252e-05,0,0,0,0.030245,-0.00012252,0.0090369,-0.011797,0.013053,0.026981,6.3083e-07,1,0.1,0
0.00019853,0.00018065,0.026714,0.011226,0.011382,0.0069249,0,0,0.039863,-0.00040526,0,0.036009,0,0,0,0.029359,0.0085807,0.011382,20.902,0.016441,0.01953,3.5613e-07,0,0.11,0
0.00039863,0.00035899,0.026746,0.010982,0.011318,0.0068676,0,0,0.040111,-0.00087491,0,0.035711,0,0,0,0.02932,0.0084073,0.011318,20.536,0.016348,0.01962,3.5923e-07,0.01,0.11,0
0.00080222,0.00071031,0.026852,0.010451,0.011191,0.0066997,0,0,0.040719,-0.0019239,0,0.034838,0,0,0,0.029245,0.0080582,0.011191,19.63,0.016165,0.019808,3.6563e-07,0.02,0.11,0
0.001213,0.0010495,0.026998,0.0098381,0.011051,0.0064401,0,0,0.041463,-0.0031532,0,0.033488,0,0,0,0.029152,0.0076846,0.011051,18.453,0.015962,0.019998,3.7173e-07,0.03,0.11,0
0.0016315,0.0013736,0.027127,0.0091616,0.010887,0.0061056,0,0,0.042226,-0.0044852,0,0.031749,0,0,0,0.029013,0.0072764,0.010887,17.11,0.015725,0.020176,3.7653e-07,0.04,0.11,0
0.0020575,0.0016798,0.027225,0.008454,0.010704,0.005704,0,0,0.042955,-0.0058491,0,0.029661,0,0,0,0.02883,0.0068491,0.010704,15.653,0.015461,0.02033,3.7964e-07,0.05,0.11,0
0.0024906,0.0019655,0.027279,0.0077412,0.010506,0.0052483,0,0,0.04361,-0.0071889,0,0.027291,0,0,0,0.028608,0.0064125,0.010506,14.132,0.015176,0.020459,3.8098e-07,0.06,0.11,0
0.0029297,0.0022287,0.027284,0.0070413,0.010298,0.0047556,0,0,0.044165,-0.0084665,0,0.024729,0,0,0,0.028354,0.0059714,0.010298,12.592,0.014874,0.020565,3.807e-07,0.07,0.11,0
0.0033739,0.0024682,0.027236,0.0063646,0.01008,0.0042438,0,0,0.044606,-0.0096609,0,0.022068,0,0,0,0.028075,0.0055264,0.01008,11.073,0.01456,0.020652,3.7911e-07,0.08,0.11,0
0.0038219,0.0026833,0.027136,0.0057158,0.0098557,0.0037305,0,0,0.04493,-0.010764,0,0.019399,0,0,0,0.027775,0.0050768,0.0098557,9.6098,0.014236,0.020727,3.765e-07,0.09,0.11,0
0.0042725,0.0028743,0.026986,0.0050965,0.0096247,0.0032311,0,0,0.045139,-0.011773,0,0.016802,0,0,0,0.02746,0.0046222,0.0096247,8.2311,0.013902,0.020794,3.7305e-07,0.1,0.11,0
0.0047246,0.0030418,0.026788,0.0045076,0.0093886,0.0027575,0,0,0.045238,-0.012691,0,0.014339,0,0,0,0.027131,0.0041647,0.0093886,6.9583,0.013561,0.020851,3.6878e-07,0.11,0.11,0
0.0051772,0.0031872,0.026545,0.0039501,0.0091485,0.0023176,0,0,0.045231,-0.013516,0,0.012051,0,0,0,0.026786,0.0037087,0.0091485,5.8025,0.013215,0.020897,3.6362e-07,0.12,0.11,0
0.0056293,0.0033125,0.026263,0.0034233,0.0089059,0.0019149,0,0,0.045129,-0.014255,0,0.0099575,0,0,0,0.026428,0.0032581,0.0089059,4.7652,0.012864,0.020926,3.5751e-07,0.13,0.11,0
0.0060798,0.0034196,0.025946,0.0029229,0.0086606,0.001552,0,0,0.044942,-0.014918,0,0.0080704,0,0,0,0.026055,0.0028134,0.0086606,3.8449,0.01251,0.02094,3.5048e-07,0.14,0.11,0
0.0065281,0.0035114,0.025597,0.0024483,0.0084134,0.0012317,0,0,0.044676,-0.015509,0,0.0064051,0,0,0,0.025667,0.0023778,0.0084134,3.0433,0.012153,0.020935,3.4246e-07,0.15,0.11,0
0.0069733,0.0035908,0.02522,0.002014,0.0081704,0.0009524,0,0,0.04433,-0.016006,0,0.0049525,0,0,0,0.025265,0.00197,0.0081704,2.3528,0.011802,0.020896,3.3327e-07,0.16,0.11,0
0.0074147,0.0036607,0.02483,0.0016377,0.0079404,0.00070144,0,0,0.043914,-0.016387,0,0.0036475,0,0,0,0.024857,0.0016114,0.0079404,1.7391,0.011469,0.020816,3.23e-07,0.17,0.11,0
0.0078516,0.0037238,0.024439,0.0013097,0.0077246,0.0004649,0,0,0.043457,-0.016679,0,0.0024175,0,0,0,0.024453,0.0012955,0.0077246,1.1616,0.011158,0.020706,3.1228e-07,0.18,0.11,0
0.0082838,0.0037829,0.024059,0.0010131,0.0075216,0.00024104,0,0,0.042997,-0.016922,0,0.0012534,0,0,0,0.024066,0.0010064,0.0075216,0.61127,0.010865,0.02059,3.0188e-07,0.19,0.11,0
0.0087115,0.0038406,0.023707,0.00076783,0.0073426,3.0561e-05,0,0,0.042549,-0.017094,0,0.00015892,0,0,0,0.023711,0.00076431,0.0073426,0.088637,0.010606,0.020467,2.9215e-07,0.2,0.11,0
0.0091348,0.0038994,0.023402,0.00060086,0.0072008,-0.00017972,0,0,0.042123,-0.01716,0,-0.00093452,0,0,0,0.023406,0.00059659,0.0072008,-0.44016,0.010401,0.020329,2.8336e-07,0.21,0.11,0
0.009554,0.0039602,0.023156,0.00049286,0.0070947,-0.00040827,0,0,0.04176,-0.017165,0,-0.002123,0,0,0,0.023166,0.00048318,0.0070947,-1.0225,0.010248,0.020205,2.7626e-07,0.22,0.11,0
0.00997,0.0040233,0.022983,0.0003962,0.0070136,-0.00065813,0,0,0.041519,-0.017205,0,-0.0034223,0,0,0,0.023004,0.0003752,0.0070136,-1.6617,0.010131,0.020147,2.7194e-07,0.23,0.11,0
0.010384,0.0040886,0.022895,0.00027863,0.006952,-0.00091571,0,0,0.041451,-0.017351,0,-0.0047617,0,0,0,0.022933,0.00024009,0.006952,-2.3129,0.010042,0.020192,2.7124e-07,0.24,0.11,0
0.010799,0.0041565,0.022901,0.00012815,0.0069087,-0.0011623,0,0,0.04158,-0.017629,0,-0.0060439,0,0,0,0.022962,6.7537e-05,0.0069087,-2.9164,0.0099793,0.020355,2.7449e-07,0.25,0.11,0
0.011216,0.0042281,0.023001,-5.7022e-05,0.0068832,-0.0013784,0,0,0.041906,-0.018045,0,-0.0071675,0,0,0,0.023085,-0.00014076,0.0068832,-3.4149,0.0099424,0.020631,2.816e-07,0.26,0.11,0
0.011637,0.0043051,0.023187,-0.00026739,0.0068758,-0.001544,0,0,0.042409,-0.018572,0,-0.0080288,0,0,0,0.02329,-0.00037066,0.0068758,-3.7592,0.0099318,0.020997,2.9208e-07,0.27,0.11,0
0.012064,0.0043896,0.023445,-0.00047058,0.0068924,-0.0016447,0,0,0.043037,-0.019144,0,-0.0085524,0,0,0,0.02356,-0.00058576,0.0068924,-3.9258,0.0099556,0.02141,3.0501e-07,0.28,0.11,0
0.012498,0.0044836,0.023763,-0.00061875,0.0069433,-0.0016839,0,0,0.043732,-0.019661,0,-0.0087562,0,0,0,0.023882,-0.0007376,0.0069433,-3.9416,0.010029,0.021818,3.1947e-07,0.29,0.11,0
0.012939,0.0045878,0.024128,-0.00069762,0.007029,-0.0016803,0,0,0.044456,-0.020089,0,-0.0087377,0,0,0,0.024244,-0.00081438,0.007029,-3.8625,0.010153,0.022202,3.3502e-07,0.3,0.11,0
0.013387,0.004702,0.024519,-0.00074154,0.0071333,-0.0016445,0,0,0.045204,-0.020475,0,-0.0085515,0,0,0,0.02463,-0.00085199,0.0071333,-3.7148,0.010304,0.022574,3.5152e-07,0.31,0.11,0
0.013843,0.0048254,0.02492,-0.00076931,0.0072453,-0.0015719,0,0,0.045955,-0.020838,0,-0.0081738,0,0,0,0.02502,-0.00086895,0.0072453,-3.4917,0.010466,0.022935,3.6848e-07,0.32,0.11,0
0.014306,0.0049577,0.025318,-0.00075621,0.0073684,-0.0014642,0,0,0.046668,-0.021124,0,-0.0076139,0,0,0,0.025403,-0.00084158,0.0073684,-3.2051,0.010643,0.023253,3.8501e-07,0.33,0.11,0
0.014776,0.0050979,0.025697,-0.0006896,0.0075022,-0.00134,0,0,0.047306,-0.021299,0,-0.0069682,0,0,0,0.025768,-0.00076032,0.0075022,-2.8993,0.010837,0.023512,4.0039e-07,0.34,0.11,0
0.015252,0.0052448,0.026047,-0.00059165,0.0076366,-0.0012174,0,0,0.047867,-0.021394,0,-0.0063307,0,0,0,0.026105,-0.00064951,0.0076366,-2.6099,0.011031,0.023723,4.1441e-07,0.35,0.11,0
0.015734,0.0053968,0.026365,-0.00048302,0.0077647,-0.0011027,0,0,0.048361,-0.021444,0,-0.0057342,0,0,0,0.026412,-0.00053015,0.0077647,-2.3462,0.011216,0.0239,4.2716e-07,0.36,0.11,0
0.016219,0.0055524,0.026653,-0.00036769,0.0078857,-0.000998,0,0,0.048796,-0.021459,0,-0.0051896,0,0,0,0.026692,-0.00040602,0.0078857,-2.1103,0.01139,0.024049,4.3868e-07,0.37,0.11,0
0.016709,0.0057103,0.026913,-0.00024683,0.0079997,-0.00090736,0,0,0.049174,-0.021441,0,-0.0047183,0,0,0,0.026944,-0.00027827,0.0079997,-1.9093,0.011555,0.024171,4.4898e-07,0.38,0.11,0
0.017203,0.005869,0.027145,-0.00012683,0.0081054,-0.0008353,0,0,0.049502,-0.021404,0,-0.0043436,0,0,0,0.027171,-0.00015328,0.0081054,-1.7509,0.011708,0.024273,4.5818e-07,0.39,0.11,0
0.0177,0.0060272,0.027353,-1.625e-05,0.0082012,-0.00078341,0,0,0.049796,-0.021365,0,-0.0040737,0,0,0,0.027377,-3.9347e-05,0.0082012,-1.6365,0.011846,0.024364,4.6656e-07,0.4,0.11,0
0.018199,0.0061837,0.027543,7.8525e-05,0.0082865,-0.00075011,0,0,0.050067,-0.021341,0,-0.0039006,0,0,0,0.027564,5.7491e-05,0.0082865,-1.5617,0.011969,0.024454,4.7443e-07,0.41,0.11,0
0.018701,0.0063375,0.027718,0.00015428,0.0083616,-0.00073204,0,0,0.050326,-0.021339,0,-0.0038066,0,0,0,0.027738,0.00013438,0.0083616,-1.5188,0.012078,0.024546,4.82e-07,0.42,0.11,0
0.019205,0.0064878,0.02788,0.00021042,0.0084271,-0.00072539,0,0,0.050577,-0.021363,0,-0.003772,0,0,0,0.027899,0.00019101,0.0084271,-1.4994,0.012172,0.024645,4.894e-07,0.43,0.11,0
0.019712,0.0066341,0.028031,0.00024806,0.0084837,-0.00072665,0,0,0.050823,-0.021413,0,-0.0037786,0,0,0,0.02805,0.00022872,0.0084837,-1.4959,0.012254,0.024749,4.9669e-07,0.44,0.11,0
0.020222,0.0067758,0.028172,0.00026933,0.0085325,-0.0007329,0,0,0.051064,-0.021484,0,-0.0038111,0,0,0,0.028192,0.00024979,0.0085325,-1.5023,0.012325,0.024858,5.0385e-07,0.45,0.11,0
0.020734,0.0069128,0.028304,0.00027681,0.0085743,-0.00074184,0,0,0.051298,-0.021574,0,-0.0038576,0,0,0,0.028324,0.00025692,0.0085743,-1.514,0.012385,0.02497,5.1086e-07,0.46,0.11,0
0.021248,0.0070448,0.028427,0.00027321,0.0086102,-0.00075178,0,0,0.051525,-0.021676,0,-0.0039092,0,0,0,0.028448,0.00025293,0.0086102,-1.5274,0.012437,0.025083,5.1768e-07,0.47,0.11,0
0.021764,0.0071718,0.028542,0.00026115,0.008641,-0.00076153,0,0,0.051743,-0.021788,0,-0.0039599,0,0,0,0.028563,0.00024047,0.008641,-1.5404,0.012481,0.025195,5.2426e-07,0.48,0.11,0
0.022283,0.0072938,0.028649,0.00024296,0.0086675,-0.00077031,0,0,0.051951,-0.021904,0,-0.0040056,0,0,0,0.02867,0.00022192,0.0086675,-1.5514,0.01252,0.025305,5.3055e-07,0.49,0.11,0
0.022803,0.0074108,0.028747,0.00022067,0.0086904,-0.00077766,0,0,0.052148,-0.022021,0,-0.0040438,0,0,0,0.028769,0.00019935,0.0086904,-1.5596,0.012553,0.025411,5.3655e-07,0.5,0.11,0
0.023326,0.007523,0.028839,0.00019596,0.0087104,-0.00078335,0,0,0.052334,-0.022138,0,-0.0040734,0,0,0,0.02886,0.00017444,0.0087104,-1.5647,0.012582,0.025512,5.4221e-07,0.51,0.11,0
0.02385,0.0076303,0.028923,0.00017014,0.0087281,-0.0007873,0,0,0.052508,-0.022251,0,-0.004094,0,0,0,0.028945,0.0001485,0.0087281,-1.5666,0.012607,0.025608,5.4754e-07,0.52,0.11,0
0.024376,0.007733,0.029002,0.00014422,0.0087438,-0.00078955,0,0,0.052671,-0.022359,0,-0.0041056,0,0,0,0.029023,0.00012255,0.0087438,-1.5655,0.01263,0.025699,5.5255e-07,0.53,0.11,0
0.024903,0.0078312,0.029074,0.00011892,0.008758,-0.00079017,0,0,0.052823,-0.022462,0,-0.0041089,0,0,0,0.029096,9.7301e-05,0.008758,-1.5615,0.01265,0.025783,5.5723e-07,0.54,0.11,0
0.025432,0.0079249,0.029142,9.4724e-05,0.008771,-0.00078929,0,0,0.052964,-0.022558,0,-0.0041043,0,0,0,0.029163,7.3235e-05,0.008771,-1.5549,0.012669,0.025863,5.6162e-07,0.55,0.11,0
0.025963,0.0080143,0.029205,7.1943e-05,0.008783,-0.000787,0,0,0.053097,-0.022649,0,-0.0040924,0,0,0,0.029226,5.0647e-05,0.008783,-1.5459,0.012687,0.025936,5.6572e-07,0.56,0.11,0
0.026494,0.0080996,0.029264,5.0731e-05,0.0087944,-0.00078342,0,0,0.053221,-0.022733,0,-0.0040738,0,0,0,0.029285,2.9693e-05,0.0087944,-1.5347,0.012703,0.026005,5.6957e-07,0.57,0.11,0
0.027027,0.0081808,0.029319,3.1147e-05,0.0088051,-0.00077861,0,0,0.053337,-0.022812,0,-0.0040488,0,0,0,0.02934,1.0423e-05,0.0088051,-1.5214,0.012718,0.02607,5.732e-07,0.58,0.11,0
0.027561,0.0082582,0.029372,1.3175e-05,0.0088154,-0.00077265,0,0,0.053446,-0.022886,0,-0.0040178,0,0,0,0.029392,-7.1811e-06,0.0088154,-1.5062,0.012733,0.02613,5.7661e-07,0.59,0.11,0
0.028096,0.0083318,0.029421,-3.2465e-06,0.0088254,-0.00076559,0,0,0.053549,-0.022954,0,-0.003981,0,0,0,0.029441,-2.3185e-05,0.0088254,-1.4891,0.012748,0.026186,5.7985e-07,0.6,0.11,0
0.028632,0.0084018,0.029468,-1.8205e-05,0.0088351,-0.00075746,0,0,0.053647,-0.023019,0,-0.0039388,0,0,0,0.029488,-3.7679e-05,0.0088351,-1.4703,0.012762,0.02624,5.8292e-07,0.61,0.11,0
0.029169,0.0084682,0.029514,-3.1802e-05,0.0088446,-0.0007483,0,0,0.05374,-0.023079,0,-0.0038912,0,0,0,0.029533,-5.0769e-05,0.0088446,-1.4496,0.012776,0.02629,5.8585e-07,0.62,0.11,0
0.029707,0.0085314,0.029557,-4.4143e-05,0.0088539,-0.00073814,0,0,0.053828,-0.023135,0,-0.0038383,0,0,0,0.029576,-6.2563e-05,0.0088539,-1.4273,0.012789,0.026337,5.8866e-07,0.63,0.11,0
0.030245,0.0085913,0.029599,-5.5332e-05,0.0088631,-0.000727,0,0,0.053913,-0.023188,0,-0.0037804,0,0,0,0.029617,-7.3169e-05,0.0088631,-1.4033,0.012802,0.026382,5.9134e-07,0.64,0.11,0
0.030785,0.0086481,0.029639,-6.5466e-05,0.0088722,-0.00071492,0,0,0.053995,-0.023238,0,-0.0037176,0,0,0,0.029657,-8.2686e-05,0.0088722,-1.3777,0.012815,0.026425,5.9393e-07,0.65,0.11,0
0.031325,0.0087019,0.029678,-7.4636e-05,0.0088811,-0.00070192,0,0,0.054073,-0.023285,0,-0.00365,0,0,0,0.029695,-9.1209e-05,0.0088811,-1.3505,0.012828,0.026466,5.9642e-07,0.66,0.11,0
0.031866,0.0087528,0.029716,-8.2924e-05,0.00889,-0.00068804,0,0,0.054148,-0.02333,0,-0.0035778,0,0,0,0.029732,-9.8824e-05,0.00889,-1.3218,0.012841,0.026505,5.9882e-07,0.67,0.11,0
0.032408,0.0088011,0.029753,-9.0403e-05,0.0088988,-0.00067333,0,0,0.054221,-0.023372,0,-0.0035013,0,0,0,0.029768,-0.00010561,0.0088988,-1.2917,0.012854,0.026543,6.0113e-07,0.68,0.11,0
0.032951,0.0088467,0.029788,-9.7141e-05,0.0089074,-0.00065782,0,0,0.054291,-0.023412,0,-0.0034207,0,0,0,0.029803,-0.00011163,0.0089074,-1.2602,0.012866,0.026579,6.0337e-07,0.69,0.11,0
0.033494,0.0088898,0.029823,-0.0001032,0.0089159,-0.00064156,0,0,0.054358,-0.02345,0,-0.0033361,0,0,0,0.029837,-0.00011697,0.0089159,-1.2274,0.012879,0.026613,6.0554e-07,0.7,0.11,0
0.034038,0.0089304,0.029856,-0.00010863,0.0089243,-0.0006246,0,0,0.054423,-0.023486,0,-0.0032479,0,0,0,0.029869,-0.00012166,0.0089243,-1.1934,0.012891,0.026646,6.0763e-07,0.71,0.11,0
0.034583,0.0089689,0.029889,-0.00011348,0.0089326,-0.00060698,0,0,0.054486,-0.02352,0,-0.0031563,0,0,0,0.029901,-0.00012578,0.0089326,-1.1584,0.012903,0.026677,6.0965e-07,0.72,0.11,0
0.035128,0.0090051,0.02992,-0.00011781,0.0089407,-0.00058877,0,0,0.054547,-0.023552,0,-0.0030616,0,0,0,0.029932,-0.00012937,0.0089407,-1.1223,0.012914,0.026707,6.116e-07,0.73,0.11,0
0.035674,0.0090392,0.029951,-0.00012165,0.0089487,-0.00057001,0,0,0.054605,-0.023583,0,-0.002964,0,0,0,0.029961,-0.00013247,0.0089487,-1.0854,0.012926,0.026736,6.1348e-07,0.74,0.11,0
0.03622,0.0090713,0.02998,-0.00012505,0.0089565,-0.00055074,0,0,0.054661,-0.023612,0,-0.0028638,0,0,0,0.02999,-0.00013514,0.0089565,-1.0476,0.012937,0.026764,6.1529e-07,0.75,0.11,0
0.036767,0.0091015,0.030008,-0.00012804,0.0089641,-0.00053102,0,0,0.054715,-0.023639,0,-0.0027613,0,0,0,0.030018,-0.00013741,0.0089641,-1.0091,0.012948,0.02679,6.1704e-07,0.76,0.11,0
0.037314,0.0091298,0.030035,-0.00013065,0.0089714,-0.00051089,0,0,0.054766,-0.023665,0,-0.0026566,0,0,0,0.030044,-0.00013932,0.0089714,-0.96987,0.012959,0.026815,6.1871e-07,0.77,0.11,0
0.037862,0.0091564,0.030062,-0.00013293,0.0089786,-0.00049039,0,0,0.054816,-0.02369,0,-0.00255,0,0,0,0.03007,-0.00014091,0.0089786,-0.93011,0.012969,0.026839,6.2032e-07,0.78,0.11,0
0.03841,0.0091814,0.030087,-0.00013491,0.0089856,-0.00046957,0,0,0.054863,-0.023713,0,-0.0024417,0,0,0,0.030094,-0.00014222,0.0089856,-0.88984,0.012979,0.026862,6.2186e-07,0.79,0.11,0
0.038959,0.0092047,0.030111,-0.00013661,0.0089923,-0.00044845,0,0,0.054908,-0.023735,0,-0.002332,0,0,0,0.030117,-0.00014327,0.0089923,-0.84914,0.012989,0.026884,6.2333e-07,0.8,0.11,0
0.039509,0.0092265,0.030134,-0.00013807,0.0089987,-0.00042709,0,0,0.054951,-0.023756,0,-0.0022209,0,0,0,0.03014,-0.00014411,0.0089987,-0.80805,0.012998,0.026904,6.2474e-07,0.81,0.11,0
0.040058,0.0092468,0.030156,-0.00013931,0.0090049,-0.0004055,0,0,0.054992,-0.023775,0,-0.0021086,0,0,0,0.030161,-0.00014475,0.0090049,-0.76664,0.013007,0.026923,6.2607e-07,0.82,0.11,0
0.040608,0.0092657,0.030176,-0.00014035,0.0090108,-0.00038372,0,0,0.055031,-0.023793,0,-0.0019953,0,0,0,0.030181,-0.00014522,0.0090108,-0.72496,0.013016,0.026942,6.2734e-07,0.83,0.11,0
0.041159,0.0092832,0.030196,-0.00014122,0.0090165,-0.00036176,0,0,0.055067,-0.02381,0,-0.0018812,0,0,0,0.0302,-0.00014555,0.0090165,-0.68304,0.013024,0.026959,6.2853e-07,0.84,0.11,0
0.04171,0.0092994,0.030215,-0.00014195,0.0090218,-0.00033966,0,0,0.055101,-0.023826,0,-0.0017663,0,0,0,0.030218,-0.00014576,0.0090218,-0.64092,0.013031,0.026975,6.2966e-07,0.85,0.11,0
0.042261,0.0093143,0.030232,-0.00014254,0.0090268,-0.00031744,0,0,0.055133,-0.02384,0,-0.0016507,0,0,0,0.030235,-0.00014587,0.0090268,-0.59865,0.013039,0.02699,6.3071e-07,0.86,0.11,0
0.042812,0.0093281,0.030248,-0.00014303,0.0090315,-0.00029511,0,0,0.055163,-0.023854,0,-0.0015346,0,0,0,0.030251,-0.00014591,0.0090315,-0.55623,0.013046,0.027004,6.317e-07,0.87,0.11,0
0.043364,0.0093406,0.030263,-0.00014342,0.0090359,-0.00027268,0,0,0.055191,-0.023866,0,-0.0014179,0,0,0,0.030266,-0.00014588,0.0090359,-0.51372,0.013052,0.027017,6.3261e-07,0.88,0.11,0
0.043916,0.009352,0.030277,-0.00014373,0.00904,-0.00025018,0,0,0.055216,-0.023878,0,-0.0013009,0,0,0,0.030279,-0.0001458,0.00904,-0.47111,0.013058,0.027029,6.3346e-07,0.89,0.11,0
0.044469,0.0093624,0.03029,-0.00014397,0.0090438,-0.00022761,0,0,0.05524,-0.023888,0,-0.0011836,0,0,0,0.030292,-0.00014569,0.0090438,-0.42843,0.013063,0.02704,6.3423e-07,0.9,0.11,0
0.045021,0.0093716,0.030301,-0.00014416,0.0090472,-0.00020498,0,0,0.055261,-0.023897,0,-0.0010659,0,0,0,0.030303,-0.00014555,0.0090472,-0.3857,0.013068,0.02705,6.3493e-07,0.91,0.11,0
0.045574,0.0093798,0.030312,-0.00014431,0.0090502,-0.00018231,0,0,0.05528,-0.023906,0,-0.00094799,0,0,0,0.030313,-0.00014541,0.0090502,-0.34292,0.013073,0.027059,6.3556e-07,0.92,0.11,0
0.046127,0.009387,0.030321,-0.00014441,0.0090529,-0.00015959,0,0,0.055297,-0.023913,0,-0.00082989,0,0,0,0.030322,-0.00014526,0.0090529,-0.30011,0.013076,0.027067,6.3611e-07,0.93,0.11,0
0.04668,0.0093931,0.030329,-0.00014449,0.0090553,-0.00013685,0,0,0.055311,-0.023919,0,-0.00071161,0,0,0,0.030329,-0.00014511,0.0090553,-0.25727,0.01308,0.027073,6.3659e-07,0.94,0.11,0
0.047233,0.0093983,0.030336,-0.00014455,0.0090573,-0.00011408,0,0,0.055323,-0.023925,0,-0.0005932,0,0,0,0.030336,-0.00014498,0.0090573,-0.21442,0.013083,0.027079,6.37e-07,0.95,0.11,0
0.047786,0.0094025,0.030341,-0.00014459,0.0090589,-9.1285e-05,0,0,0.055333,-0.023929,0,-0.00047468,0,0,0,0.030341,-0.00014487,0.0090589,-0.17155,0.013085,0.027084,6.3733e-07,0.96,0.11,0
0.04834,0.0094058,0.030345,-0.00014461,0.0090602,-6.8477e-05,0,0,0.055341,-0.023933,0,-0.00035608,0,0,0,0.030345,-0.00014477,0.0090602,-0.12867,0.013087,0.027087,6.3759e-07,0.97,0.11,0
0.048893,0.0094081,0.030348,-0.00014463,0.0090611,-4.5658e-05,0,0,0.055347,-0.023935,0,-0.00023742,0,0,0,0.030348,-0.00014471,0.0090611,-0.085783,0.013088,0.02709,6.3778e-07,0.98,0.11,0
0.049446,0.0094095,0.03035,-0.00014464,0.0090617,-2.06e-05,0,0,0.05535,-0.023936,0,-0.00010712,0,0,0,0.03035,-0.00014466,0.0090617,-0.0387,0.013089,0.027092,6.3789e-07,0.99,0.11,0
0.049723,0.00941,0.030351,-0.00014464,0.0090619,-6.9538e-06,0,0,0.055351,-0.023937,0,-3.616e-05,0,0,0,0.030351,-0.00014465,0.0090619,-0.013063,0.013089,0.027092,6.3793e-07,1,0.11,0
0.00019999,0.00017695,0.026913,0.011345,0.011477,0.0067835,0,0,0.040132,-0.00034411,0,0.035274,0,0,0,0.029454,0.0088031,0.011477,20.536,0.016578,0.019453,3.5406e-07,0,0.12,0
0.00040132,0.00035096,0.02694,0.011135,0.011422,0.0067242,0,0,0.040345,-0.00074808,0,0.034966,0,0,0,0.029415,0.0086591,0.011422,20.199,0.016499,0.019522,3.5639e-07,0.01,0.12,0
0.00080691,0.00069258,0.027031,0.010673,0.011311,0.0065537,0,0,0.040872,-0.0016597,0,0.034079,0,0,0,0.029337,0.0083675,0.011311,19.356,0.016338,0.019664,3.6109e-07,0.02,0.12,0
0.0012188,0.0010203,0.027157,0.01013,0.011186,0.0063018,0,0,0.041524,-0.0027464,0,0.032769,0,0,0,0.02924,0.0080463,0.011186,18.26,0.016157,0.019812,3.657e-07,0.03,0.12,0
0.0016374,0.0013318,0.027269,0.0095194,0.011037,0.0059914,0,0,0.042204,-0.0039444,0,0.031156,0,0,0,0.029108,0.0076807,0.011037,17.018,0.015942,0.019963,3.6982e-07,0.04,0.12,0
0.0020628,0.0016249,0.027355,0.0088686,0.010867,0.0056272,0,0,0.042868,-0.0051959,0,0.029261,0,0,0,0.028939,0.007284,0.010867,15.674,0.015697,0.020105,3.7297e-07,0.05,0.12,0
0.0024947,0.0018977,0.027403,0.0081985,0.01068,0.005218,0,0,0.043479,-0.0064532,0,0.027134,0,0,0,0.028736,0.0068654,0.01068,14.267,0.015427,0.020236,3.7492e-07,0.06,0.12,0
0.0029324,0.0021484,0.027407,0.0075247,0.010479,0.0047765,0,0,0.044011,-0.0076825,0,0.024838,0,0,0,0.028502,0.0064297,0.010479,12.839,0.015137,0.020353,3.7569e-07,0.07,0.12,0
0.003375,0.002376,0.027362,0.0068571,0.010266,0.0043173,0,0,0.04445,-0.0088622,0,0.02245,0,0,0,0.02824,0.0059781,0.010266,11.425,0.014828,0.020459,3.7537e-07,0.08,0.12,0
0.0038214,0.00258,0.027265,0.0062009,0.01004,0.0038557,0,0,0.044786,-0.009981,0,0.02005,0,0,0,0.027955,0.0055107,0.01004,10.061,0.014502,0.020559,3.7412e-07,0.09,0.12,0
0.0042707,0.0027606,0.027116,0.0055594,0.0098025,0.0034069,0,0,0.045014,-0.011032,0,0.017716,0,0,0,0.027648,0.0050275,0.0098025,8.7773,0.014159,0.020652,3.7195e-07,0.1,0.12,0
0.0047217,0.0029187,0.026911,0.0049366,0.0095544,0.0029841,0,0,0.045128,-0.012006,0,0.015517,0,0,0,0.027315,0.0045328,0.0095544,7.6026,0.013801,0.020734,3.6867e-07,0.11,0.12,0
0.0051733,0.0030556,0.02665,0.0043398,0.0092971,0.002595,0,0,0.045119,-0.012889,0,0.013494,0,0,0,0.026954,0.0040364,0.0092971,6.5518,0.013429,0.020793,3.6386e-07,0.12,0.12,0
0.0056241,0.0031732,0.026335,0.0037773,0.0090337,0.0022406,0,0,0.044983,-0.013667,0,0.011651,0,0,0,0.026561,0.0035513,0.0090337,5.6208,0.013049,0.020818,3.5719e-07,0.13,0.12,0
0.0060729,0.0032735,0.025971,0.0032443,0.0087645,0.0019181,0,0,0.044736,-0.014353,0,0.0099742,0,0,0,0.026137,0.0030777,0.0087645,4.7938,0.01266,0.020808,3.4875e-07,0.14,0.12,0
0.0065188,0.0033592,0.025556,0.0027241,0.008484,0.001633,0,0,0.044387,-0.014976,0,0.0084918,0,0,0,0.025678,0.0026019,0.008484,4.0742,0.012255,0.02077,3.3873e-07,0.15,0.12,0
0.0069607,0.0034335,0.025086,0.0022371,0.008197,0.0013923,0,0,0.043912,-0.015496,0,0.0072399,0,0,0,0.025177,0.0021459,0.008197,3.4787,0.01184,0.020681,3.2664e-07,0.16,0.12,0
0.007397,0.0034999,0.024581,0.0018523,0.0079301,0.0011755,0,0,0.043293,-0.015802,0,0.0061127,0,0,0,0.02465,0.0017838,0.0079301,2.9609,0.011455,0.020496,3.1201e-07,0.17,0.12,0
0.0078265,0.0035605,0.024068,0.0015574,0.0076876,0.00094072,0,0,0.042589,-0.015939,0,0.0048918,0,0,0,0.024116,0.0015093,0.0076876,2.4036,0.011104,0.020238,2.9605e-07,0.18,0.12,0
0.0082488,0.0036174,0.023557,0.0012596,0.0074449,0.00068317,0,0,0.041891,-0.016082,0,0.0035525,0,0,0,0.023586,0.0012307,0.0074449,1.7737,0.010754,0.019986,2.8075e-07,0.19,0.12,0
0.0086643,0.0036737,0.023084,0.0010008,0.0072253,0.00042527,0,0,0.041232,-0.016184,0,0.0022114,0,0,0,0.023098,0.00098602,0.0072253,1.1247,0.010437,0.019747,2.6699e-07,0.2,0.12,0
0.0090735,0.0037322,0.022689,0.00086722,0.0070668,0.00015005,0,0,0.040617,-0.016119,0,0.00078028,0,0,0,0.022695,0.00086074,0.0070668,0.41368,0.010208,0.019487,2.5487e-07,0.21,0.12,0
0.0094767,0.0037935,0.022377,0.00079861,0.0069528,-0.00016737,0,0,0.040104,-0.016001,0,-0.00087034,0,0,0,0.022383,0.00079292,0.0069528,-0.42927,0.010043,0.019264,2.4534e-07,0.22,0.12,0
0.0098755,0.0038565,0.022162,0.00071169,0.006862,-0.00051569,0,0,0.039779,-0.015991,0,-0.0026816,0,0,0,0.022178,0.00069578,0.006862,-1.3672,0.0099118,0.019158,2.3983e-07,0.23,0.12,0
0.010272,0.0039204,0.022055,0.00058567,0.0067921,-0.00087025,0,0,0.039683,-0.016137,0,-0.0045253,0,0,0,0.022093,0.0005475,0.0067921,-2.3142,0.0098108,0.019201,2.3891e-07,0.24,0.12,0
0.010669,0.0039854,0.022054,0.00041577,0.006741,-0.0012125,0,0,0.039815,-0.016446,0,-0.0063049,0,0,0,0.022125,0.00034527,0.006741,-3.1997,0.009737,0.01939,2.4246e-07,0.25,0.12,0
0.011069,0.0040525,0.022162,0.00019902,0.0067083,-0.0015276,0,0,0.040179,-0.016924,0,-0.0079435,0,0,0,0.022271,9.0252e-05,0.0067083,-3.9682,0.0096897,0.019723,2.5044e-07,0.26,0.12,0
0.011473,0.0041235,0.022381,-6.4741e-05,0.0066948,-0.0017944,0,0,0.040783,-0.017575,0,-0.009331,0,0,0,0.022527,-0.00021104,0.0066948,-4.5561,0.0096703,0.020192,2.6284e-07,0.27,0.12,0
0.011884,0.0042014,0.022697,-0.00035397,0.006703,-0.0019851,0,0,0.041585,-0.018348,0,-0.010323,0,0,0,0.022872,-0.00052849,0.006703,-4.9035,0.0096821,0.020752,2.7883e-07,0.28,0.12,0
0.012304,0.0042893,0.023101,-0.00057764,0.006757,-0.0020893,0,0,0.042494,-0.01907,0,-0.010865,0,0,0,0.02329,-0.00076642,0.006757,-5.0205,0.0097601,0.021315,2.9709e-07,0.29,0.12,0
0.012734,0.0043886,0.023587,-0.00068172,0.0068716,-0.0021355,0,0,0.04346,-0.019639,0,-0.011104,0,0,0,0.02378,-0.00087493,0.0068716,-5.0032,0.0099257,0.021838,3.1732e-07,0.3,0.12,0
0.013174,0.0044982,0.024113,-0.0007743,0.0070017,-0.0021363,0,0,0.04449,-0.020218,0,-0.011109,0,0,0,0.024303,-0.00096371,0.0070017,-4.8791,0.010114,0.022374,3.3947e-07,0.31,0.12,0
0.013624,0.0046172,0.024642,-0.00089295,0.0071246,-0.0020602,0,0,0.045544,-0.020846,0,-0.010713,0,0,0,0.024814,-0.001065,0.0071246,-4.5869,0.010291,0.022909,3.6231e-07,0.32,0.12,0
0.014085,0.0047459,0.025162,-0.00091978,0.0072727,-0.0019127,0,0,0.046512,-0.0213,0,-0.0099459,0,0,0,0.025307,-0.0010647,0.0072727,-4.1715,0.010505,0.023348,3.8396e-07,0.33,0.12,0
0.014554,0.004884,0.025646,-0.00083784,0.0074424,-0.0017462,0,0,0.047329,-0.021529,0,-0.0090803,0,0,0,0.025765,-0.00095669,0.0074424,-3.7539,0.01075,0.023667,4.0324e-07,0.34,0.12,0
0.015031,0.0050297,0.026073,-0.00072903,0.0076033,-0.001589,0,0,0.048022,-0.021664,0,-0.0082629,0,0,0,0.026171,-0.00082633,0.0076033,-3.3781,0.010983,0.023923,4.2035e-07,0.35,0.12,0
0.015515,0.0051811,0.026454,-0.0006202,0.0077501,-0.0014378,0,0,0.04863,-0.021763,0,-0.0074764,0,0,0,0.026533,-0.00069909,0.0077501,-3.0279,0.011195,0.024143,4.3579e-07,0.36,0.12,0
0.016004,0.0053365,0.026793,-0.00049476,0.0078895,-0.0012922,0,0,0.049149,-0.021799,0,-0.0067196,0,0,0,0.026856,-0.00055787,0.0078895,-2.7017,0.011396,0.024317,4.4941e-07,0.37,0.12,0
0.016498,0.0054945,0.02709,-0.00035084,0.0080217,-0.0011636,0,0,0.049577,-0.021769,0,-0.0060507,0,0,0,0.02714,-0.00040155,0.0080217,-2.4206,0.011587,0.024444,4.6102e-07,0.38,0.12,0
0.016995,0.0056537,0.027347,-0.00020382,0.0081429,-0.001061,0,0,0.04993,-0.021701,0,-0.0055174,0,0,0,0.027389,-0.00024567,0.0081429,-2.1995,0.011762,0.02454,4.7094e-07,0.39,0.12,0
0.017496,0.0058124,0.027572,-6.8687e-05,0.0082511,-0.00098618,0,0,0.050235,-0.021631,0,-0.0051281,0,0,0,0.027608,-0.00010461,0.0082511,-2.0384,0.011918,0.024622,4.7973e-07,0.4,0.12,0
0.018,0.0059693,0.027774,4.5718e-05,0.008346,-0.00093533,0,0,0.050514,-0.021581,0,-0.0048637,0,0,0,0.027806,1.3585e-05,0.008346,-1.9277,0.012055,0.024704,4.8791e-07,0.41,0.12,0
0.018506,0.0061232,0.027959,0.00013612,0.0084284,-0.00090308,0,0,0.050778,-0.02156,0,-0.004696,0,0,0,0.027988,0.00010633,0.0084284,-1.8553,0.012174,0.024792,4.9578e-07,0.42,0.12,0
0.019016,0.0062733,0.028128,0.00020256,0.0084992,-0.00088427,0,0,0.051035,-0.021571,0,-0.0045982,0,0,0,0.028157,0.00017417,0.0084992,-1.8102,0.012277,0.024887,5.0346e-07,0.43,0.12,0
0.019527,0.0064191,0.028285,0.00024694,0.0085597,-0.00087459,0,0,0.051287,-0.021613,0,-0.0045479,0,0,0,0.028313,0.00021932,0.0085597,-1.7834,0.012364,0.02499,5.1101e-07,0.44,0.12,0
0.020041,0.0065601,0.028431,0.00027216,0.0086109,-0.00087064,0,0,0.051532,-0.021681,0,-0.0045273,0,0,0,0.028458,0.00024497,0.0086109,-1.7679,0.012438,0.025099,5.1842e-07,0.45,0.12,0
0.020558,0.0066962,0.028566,0.00028156,0.0086541,-0.0008699,0,0,0.05177,-0.021769,0,-0.0045235,0,0,0,0.028593,0.00025458,0.0086541,-1.7587,0.0125,0.02521,5.2564e-07,0.46,0.12,0
0.021077,0.0068271,0.02869,0.00027846,0.0086906,-0.00087057,0,0,0.051999,-0.021872,0,-0.004527,0,0,0,0.028717,0.00025159,0.0086906,-1.7523,0.012553,0.025324,5.3261e-07,0.47,0.12,0
0.021598,0.006953,0.028805,0.00026593,0.0087213,-0.00087146,0,0,0.052218,-0.021984,0,-0.0045316,0,0,0,0.028832,0.00023917,0.0087213,-1.7464,0.012598,0.025436,5.393e-07,0.48,0.12,0
0.022121,0.0070738,0.028911,0.00024672,0.0087473,-0.00087179,0,0,0.052426,-0.022102,0,-0.0045333,0,0,0,0.028938,0.00022008,0.0087473,-1.7395,0.012635,0.025545,5.4566e-07,0.49,0.12,0
0.022646,0.0071897,0.029008,0.00022311,0.0087694,-0.00087118,0,0,0.052621,-0.02222,0,-0.0045301,0,0,0,0.029035,0.00019664,0.0087694,-1.7311,0.012667,0.02565,5.5167e-07,0.5,0.12,0
0.023173,0.0073007,0.029097,0.00019697,0.0087883,-0.00086944,0,0,0.052803,-0.022337,0,-0.0045211,0,0,0,0.029123,0.00017074,0.0087883,-1.7209,0.012694,0.025749,5.573e-07,0.51,0.12,0
0.023702,0.0074069,0.029179,0.00016976,0.0088046,-0.00086655,0,0,0.052973,-0.02245,0,-0.004506,0,0,0,0.029205,0.00014381,0.0088046,-1.7089,0.012718,0.025843,5.6255e-07,0.52,0.12,0
0.024233,0.0075085,0.029254,0.00014252,0.0088188,-0.00086258,0,0,0.05313,-0.022558,0,-0.0044854,0,0,0,0.029279,0.00011691,0.0088188,-1.6952,0.012738,0.025931,5.6743e-07,0.53,0.12,0
0.024765,0.0076056,0.029322,0.000116,0.0088314,-0.00085762,0,0,0.053276,-0.02266,0,-0.0044596,0,0,0,0.029347,9.0784e-05,0.0088314,-1.68,0.012757,0.026012,5.7195e-07,0.54,0.12,0
0.025298,0.0076984,0.029385,9.07e-05,0.0088428,-0.00085178,0,0,0.05341,-0.022755,0,-0.0044293,0,0,0,0.02941,6.5905e-05,0.0088428,-1.6636,0.012773,0.026088,5.7616e-07,0.55,0.12,0
0.025833,0.0077869,0.029444,6.689e-05,0.0088531,-0.00084514,0,0,0.053535,-0.022844,0,-0.0043947,0,0,0,0.029468,4.2555e-05,0.0088531,-1.6461,0.012788,0.026158,5.8006e-07,0.56,0.12,0
0.026369,0.0078713,0.029498,4.4713e-05,0.0088627,-0.00083775,0,0,0.053651,-0.022927,0,-0.0043563,0,0,0,0.029522,2.0868e-05,0.0088627,-1.6276,0.012802,0.026223,5.8369e-07,0.57,0.12,0
0.026906,0.0079518,0.029548,2.4204e-05,0.0088717,-0.00082965,0,0,0.053759,-0.023004,0,-0.0043142,0,0,0,0.029572,8.7659e-07,0.0088717,-1.6081,0.012815,0.026283,5.8708e-07,0.58,0.12,0
0.027444,0.0080284,0.029596,5.3294e-06,0.0088803,-0.00082085,0,0,0.05386,-0.023075,0,-0.0042684,0,0,0,0.029618,-1.7452e-05,0.0088803,-1.5875,0.012827,0.026339,5.9026e-07,0.59,0.12,0
0.027983,0.0081013,0.02964,-1.1984e-05,0.0088885,-0.00081132,0,0,0.053955,-0.023141,0,-0.0042189,0,0,0,0.029662,-3.4191e-05,0.0088885,-1.5659,0.012839,0.026392,5.9326e-07,0.6,0.12,0
0.028523,0.0081707,0.029683,-2.7831e-05,0.0088964,-0.00080106,0,0,0.054044,-0.023203,0,-0.0041655,0,0,0,0.029704,-4.9437e-05,0.0088964,-1.5431,0.01285,0.026441,5.9609e-07,0.61,0.12,0
0.029064,0.0082366,0.029723,-4.2316e-05,0.0089042,-0.00079004,0,0,0.054129,-0.023261,0,-0.0041082,0,0,0,0.029744,-6.3292e-05,0.0089042,-1.5191,0.012862,0.026488,5.9878e-07,0.62,0.12,0
0.029606,0.0082991,0.029761,-5.5544e-05,0.0089118,-0.00077824,0,0,0.054209,-0.023315,0,-0.0040469,0,0,0,0.029782,-7.5863e-05,0.0089118,-1.4939,0.012873,0.026531,6.0134e-07,0.63,0.12,0
0.030148,0.0083585,0.029799,-6.7613e-05,0.0089193,-0.00076564,0,0,0.054286,-0.023366,0,-0.0039814,0,0,0,0.029818,-8.7247e-05,0.0089193,-1.4673,0.012883,0.026573,6.0378e-07,0.64,0.12,0
0.030692,0.0084148,0.029834,-7.8616e-05,0.0089267,-0.00075224,0,0,0.05436,-0.023414,0,-0.0039117,0,0,0,0.029853,-9.7539e-05,0.0089267,-1.4395,0.012894,0.026612,6.0613e-07,0.65,0.12,0
0.031236,0.0084682,0.029869,-8.8635e-05,0.008934,-0.00073803,0,0,0.05443,-0.023459,0,-0.0038378,0,0,0,0.029887,-0.00010682,0.008934,-1.4102,0.012905,0.026649,6.0838e-07,0.66,0.12,0
0.03178,0.0085187,0.029902,-9.7747e-05,0.0089413,-0.00072303,0,0,0.054498,-0.023502,0,-0.0037597,0,0,0,0.02992,-0.00011518,0.0089413,-1.3797,0.012915,0.026685,6.1055e-07,0.67,0.12,0
0.032326,0.0085665,0.029934,-0.00010602,0.0089485,-0.00070724,0,0,0.054563,-0.023542,0,-0.0036777,0,0,0,0.029951,-0.00012268,0.0089485,-1.3478,0.012926,0.026719,6.1264e-07,0.68,0.12,0
0.032872,0.0086117,0.029966,-0.00011351,0.0089556,-0.00069071,0,0,0.054626,-0.02358,0,-0.0035917,0,0,0,0.029981,-0.00012938,0.0089556,-1.3146,0.012936,0.026752,6.1465e-07,0.69,0.12,0
0.033418,0.0086544,0.029996,-0.00012028,0.0089627,-0.00067345,0,0,0.054686,-0.023616,0,-0.0035019,0,0,0,0.030011,-0.00013535,0.0089627,-1.2802,0.012946,0.026783,6.1659e-07,0.7,0.12,0
0.033965,0.0086948,0.030025,-0.00012638,0.0089697,-0.00065551,0,0,0.054745,-0.02365,0,-0.0034086,0,0,0,0.03004,-0.00014064,0.0089697,-1.2447,0.012956,0.026812,6.1846e-07,0.71,0.12,0
0.034513,0.0087328,0.030054,-0.00013186,0.0089765,-0.00063692,0,0,0.054801,-0.023682,0,-0.003312,0,0,0,0.030067,-0.00014531,0.0089765,-1.2081,0.012966,0.02684,6.2027e-07,0.72,0.12,0
0.035061,0.0087687,0.030081,-0.00013676,0.0089833,-0.00061774,0,0,0.054854,-0.023712,0,-0.0032123,0,0,0,0.030094,-0.0001494,0.0089833,-1.1705,0.012976,0.026867,6.2201e-07,0.73,0.12,0
0.03561,0.0088026,0.030108,-0.00014113,0.00899,-0.00059801,0,0,0.054906,-0.023741,0,-0.0031096,0,0,0,0.03012,-0.00015296,0.00899,-1.132,0.012986,0.026893,6.2368e-07,0.74,0.12,0
0.036159,0.0088344,0.030133,-0.000145,0.0089965,-0.00057777,0,0,0.054956,-0.023768,0,-0.0030044,0,0,0,0.030144,-0.00015604,0.0089965,-1.0927,0.012995,0.026918,6.2529e-07,0.75,0.12,0
0.036709,0.0088643,0.030158,-0.00014842,0.0090029,-0.00055707,0,0,0.055004,-0.023794,0,-0.0028968,0,0,0,0.030169,-0.00015868,0.0090029,-1.0526,0.013004,0.026941,6.2684e-07,0.76,0.12,0
0.037259,0.0088924,0.030182,-0.00015143,0.0090092,-0.00053595,0,0,0.05505,-0.023818,0,-0.002787,0,0,0,0.030192,-0.00016091,0.0090092,-1.0118,0.013013,0.026963,6.2833e-07,0.77,0.12,0
0.03781,0.0089188,0.030205,-0.00015406,0.0090153,-0.00051446,0,0,0.055093,-0.02384,0,-0.0026752,0,0,0,0.030214,-0.00016279,0.0090153,-0.97047,0.013022,0.026985,6.2975e-07,0.78,0.12,0
0.038361,0.0089435,0.030227,-0.00015635,0.0090212,-0.00049264,0,0,0.055135,-0.023862,0,-0.0025617,0,0,0,0.030235,-0.00016435,0.0090212,-0.92859,0.013031,0.027005,6.3111e-07,0.79,0.12,0
0.038913,0.0089666,0.030248,-0.00015832,0.0090269,-0.00047051,0,0,0.055175,-0.023882,0,-0.0024467,0,0,0,0.030255,-0.00016562,0.0090269,-0.88624,0.013039,0.027024,6.3241e-07,0.8,0.12,0
0.039465,0.0089882,0.030268,-0.00016002,0.0090325,-0.00044812,0,0,0.055213,-0.0239,0,-0.0023302,0,0,0,0.030275,-0.00016663,0.0090325,-0.84349,0.013047,0.027042,6.3365e-07,0.81,0.12,0
0.040017,0.0090083,0.030287,-0.00016147,0.0090378,-0.0004255,0,0,0.055249,-0.023918,0,-0.0022126,0,0,0,0.030293,-0.00016743,0.0090378,-0.80039,0.013055,0.027059,6.3483e-07,0.82,0.12,0
0.04057,0.009027,0.030306,-0.0001627,0.0090428,-0.00040267,0,0,0.055283,-0.023934,0,-0.0020939,0,0,0,0.030311,-0.00016803,0.0090428,-0.75699,0.013062,0.027075,6.3594e-07,0.83,0.12,0
0.041123,0.0090444,0.030323,-0.00016373,0.0090477,-0.00037967,0,0,0.055315,-0.02395,0,-0.0019743,0,0,0,0.030327,-0.00016847,0.0090477,-0.71334,0.013069,0.02709,6.3699e-07,0.84,0.12,0
0.041676,0.0090605,0.030339,-0.0001646,0.0090523,-0.00035651,0,0,0.055345,-0.023964,0,-0.0018538,0,0,0,0.030343,-0.00016878,0.0090523,-0.66946,0.013076,0.027104,6.3799e-07,0.85,0.12,0
0.04223,0.0090753,0.030354,-0.00016532,0.0090567,-0.00033321,0,0,0.055374,-0.023977,0,-0.0017327,0,0,0,0.030358,-0.00016897,0.0090567,-0.6254,0.013082,0.027118,6.3891e-07,0.86,0.12,0
0.042784,0.0090889,0.030368,-0.00016591,0.0090608,-0.0003098,0,0,0.0554,-0.023989,0,-0.0016109,0,0,0,0.030372,-0.00016906,0.0090608,-0.58119,0.013088,0.02713,6.3978e-07,0.87,0.12,0
0.043338,0.0091013,0.030382,-0.00016639,0.0090646,-0.00028628,0,0,0.055424,-0.024,0,-0.0014887,0,0,0,0.030384,-0.00016908,0.0090646,-0.53684,0.013093,0.027141,6.4059e-07,0.88,0.12,0
0.043892,0.0091126,0.030394,-0.00016677,0.0090681,-0.00026268,0,0,0.055447,-0.024011,0,-0.0013659,0,0,0,0.030396,-0.00016904,0.0090681,-0.49239,0.013098,0.027152,6.4133e-07,0.89,0.12,0
0.044447,0.0091228,0.030405,-0.00016708,0.0090714,-0.000239,0,0,0.055467,-0.02402,0,-0.0012428,0,0,0,0.030407,-0.00016896,0.0090714,-0.44784,0.013103,0.027161,6.4201e-07,0.9,0.12,0
0.045001,0.009132,0.030415,-0.00016732,0.0090743,-0.00021526,0,0,0.055486,-0.024028,0,-0.0011193,0,0,0,0.030417,-0.00016885,0.0090743,-0.40322,0.013107,0.02717,6.4262e-07,0.91,0.12,0
0.045556,0.0091401,0.030424,-0.00016751,0.009077,-0.00019146,0,0,0.055503,-0.024036,0,-0.00099559,0,0,0,0.030425,-0.00016872,0.009077,-0.35854,0.013111,0.027178,6.4317e-07,0.92,0.12,0
0.046112,0.0091472,0.030432,-0.00016766,0.0090794,-0.00016762,0,0,0.055517,-0.024042,0,-0.00087161,0,0,0,0.030433,-0.00016859,0.0090794,-0.31381,0.013115,0.027184,6.4366e-07,0.93,0.12,0
0.046667,0.0091533,0.030439,-0.00016777,0.0090814,-0.00014374,0,0,0.05553,-0.024048,0,-0.00074744,0,0,0,0.03044,-0.00016845,0.0090814,-0.26905,0.013118,0.02719,6.4408e-07,0.94,0.12,0
0.047222,0.0091584,0.030445,-0.00016785,0.0090832,-0.00011983,0,0,0.055541,-0.024053,0,-0.0006231,0,0,0,0.030446,-0.00016833,0.0090832,-0.22425,0.01312,0.027195,6.4444e-07,0.95,0.12,0
0.047778,0.0091626,0.03045,-0.00016791,0.0090846,-9.589e-05,0,0,0.05555,-0.024057,0,-0.00049863,0,0,0,0.03045,-0.00016822,0.0090846,-0.17943,0.013122,0.027199,6.4474e-07,0.96,0.12,0
0.048333,0.0091658,0.030454,-0.00016795,0.0090857,-7.1934e-05,0,0,0.055557,-0.02406,0,-0.00037406,0,0,0,0.030454,-0.00016813,0.0090857,-0.13458,0.013124,0.027202,6.4497e-07,0.97,0.12,0
0.048889,0.0091682,0.030456,-0.00016798,0.0090865,-4.7964e-05,0,0,0.055562,-0.024062,0,-0.00024941,0,0,0,0.030456,-0.00016806,0.0090865,-0.08973,0.013125,0.027205,6.4513e-07,0.98,0.12,0
0.049444,0.0091695,0.030458,-0.00016799,0.009087,-2.1775e-05,0,0,0.055565,-0.024063,0,-0.00011323,0,0,0,0.030458,-0.00016802,0.009087,-0.040734,0.013126,0.027206,6.4523e-07,0.99,0.12,0
0.049722,0.00917,0.030459,-0.000168,0.0090872,-7.5745e-06,0,0,0.055566,-0.024063,0,-3.9387e-05,0,0,0,0.030459,-0.00016801,0.0090872,-0.014168,0.013126,0.027206,6.4526e-07,1,0.12,0
0.0002021,0.00017377,0.027198,0.011492,0.011607,0.0066623,0,0,0.040537,-0.00029944,0,0.034644,0,0,0,0.029644,0.0090458,0.011607,20.156,0.016766,0.019445,3.5559e-07,0,0.13,0
0.00040537,0.00034402,0.027222,0.011307,0.011559,0.0066011,0,0,0.040725,-0.00065508,0,0.034326,0,0,0,0.029605,0.0089233,0.011559,19.84,0.016696,0.019499,3.5736e-07,0.01,0.13,0
0.0008145,0.00067712,0.027302,0.010896,0.011459,0.0064277,0,0,0.04119,-0.0014646,0,0.033424,0,0,0,0.029523,0.0086743,0.011459,19.044,0.016552,0.019606,3.6081e-07,0.02,0.13,0
0.0012292,0.00099457,0.027411,0.010405,0.011345,0.0061814,0,0,0.041772,-0.0024428,0,0.032143,0,0,0,0.029425,0.0083918,0.011345,18.013,0.016387,0.019723,3.6436e-07,0.03,0.13,0
0.0016499,0.0012947,0.027509,0.0098468,0.011207,0.0058912,0,0,0.042386,-0.0035359,0,0.030634,0,0,0,0.029299,0.0080574,0.011207,16.859,0.016188,0.019856,3.6806e-07,0.04,0.13,0
0.0020769,0.0015758,0.027584,0.0092417,0.011048,0.0055591,0,0,0.042994,-0.0046956,0,0.028907,0,0,0,0.029143,0.007683,0.011048,15.617,0.015958,0.019992,3.7134e-07,0.05,0.13,0
0.0025098,0.0018364,0.027625,0.0086074,0.01087,0.0051912,0,0,0.043564,-0.0058823,0,0.026994,0,0,0,0.028956,0.007277,0.01087,14.322,0.015701,0.020125,3.7392e-07,0.06,0.13,0
0.0029482,0.002075,0.027625,0.0079566,0.010675,0.0047968,0,0,0.044072,-0.0070667,0,0.024943,0,0,0,0.028739,0.0068433,0.010675,13.007,0.015419,0.020254,3.7564e-07,0.07,0.13,0
0.0033913,0.0022909,0.027579,0.0072976,0.010463,0.0043877,0,0,0.044502,-0.00823,0,0.022816,0,0,0,0.028493,0.0063833,0.010463,11.705,0.015113,0.02038,3.7651e-07,0.08,0.13,0
0.0038382,0.0024837,0.027483,0.0066351,0.010235,0.0039778,0,0,0.044844,-0.0093608,0,0.020684,0,0,0,0.028222,0.0058964,0.010235,10.45,0.014784,0.020504,3.766e-07,0.09,0.13,0
0.0042881,0.0026536,0.027334,0.0059715,0.0099915,0.0035823,0,0,0.045089,-0.010452,0,0.018628,0,0,0,0.027923,0.0053816,0.0099915,9.2757,0.014432,0.020628,3.7585e-07,0.1,0.13,0
0.00474,0.0028016,0.027124,0.0053107,0.0097304,0.0032171,0,0,0.045223,-0.011491,0,0.016729,0,0,0,0.027593,0.0048415,0.0097304,8.2207,0.014055,0.020745,3.7394e-07,0.11,0.13,0
0.0051926,0.0029295,0.026844,0.0046667,0.0094532,0.0028942,0,0,0.045216,-0.012445,0,0.01505,0,0,0,0.02722,0.0042907,0.0094532,7.3149,0.013655,0.020834,3.6999e-07,0.12,0.13,0
0.0056443,0.0030391,0.026485,0.0040631,0.0091643,0.0026122,0,0,0.045033,-0.013263,0,0.013583,0,0,0,0.02679,0.0037577,0.0091643,6.5561,0.013237,0.020862,3.6282e-07,0.13,0.13,0
0.0060933,0.0031326,0.026056,0.0035145,0.0088711,0.0023562,0,0,0.04468,-0.013927,0,0.012252,0,0,0,0.026306,0.0032643,0.0088711,5.9014,0.012814,0.020813,3.5225e-07,0.14,0.13,0
0.0065379,0.0032119,0.025566,0.0029734,0.008562,0.0021206,0,0,0.044212,-0.01453,0,0.011027,0,0,0,0.025771,0.0027684,0.008562,5.3152,0.012367,0.020723,3.3948e-07,0.15,0.13,0
0.0069775,0.0032809,0.024991,0.0024096,0.0082201,0.0019327,0,0,0.043604,-0.015107,0,0.01005,0,0,0,0.025163,0.0022368,0.0082201,4.8559,0.011873,0.020598,3.2447e-07,0.16,0.13,0
0.00741,0.0033446,0.024323,0.0019853,0.0078926,0.0017875,0,0,0.04272,-0.015359,0,0.009295,0,0,0,0.024477,0.0018318,0.0078926,4.548,0.0114,0.020305,3.0463e-07,0.17,0.13,0
0.0078319,0.0034051,0.023609,0.0017739,0.0076149,0.0016105,0,0,0.041585,-0.015187,0,0.0083748,0,0,0,0.023744,0.0016388,0.0076149,4.2131,0.010999,0.019806,2.8049e-07,0.18,0.13,0
0.0082417,0.0034613,0.022903,0.001575,0.0073433,0.0013363,0,0,0.040455,-0.014998,0,0.0069486,0,0,0,0.023007,0.001471,0.0073433,3.6083,0.010607,0.019283,2.5705e-07,0.19,0.13,0
0.008641,0.003517,0.02226,0.0013696,0.0070888,0.00096446,0,0,0.039445,-0.01487,0,0.0050152,0,0,0,0.02232,0.0013091,0.0070888,2.6797,0.010239,0.018801,2.3669e-07,0.2,0.13,0
0.0090306,0.003577,0.021736,0.0012758,0.0069035,0.00053907,0,0,0.038564,-0.014632,0,0.0028031,0,0,0,0.02176,0.0012516,0.0069035,1.5416,0.0099718,0.018348,2.1995e-07,0.21,0.13,0
0.0094123,0.0036402,0.021369,0.0012177,0.006776,8.4918e-05,0,0,0.037942,-0.014452,0,0.00044157,0,0,0,0.021377,0.0012099,0.006776,0.26315,0.0097876,0.018041,2.088e-07,0.22,0.13,0
0.0097894,0.0037035,0.021156,0.001115,0.0066813,-0.00037745,0,0,0.037634,-0.014472,0,-0.0019628,0,0,0,0.021169,0.0011023,0.0066813,-1.0673,0.0096508,0.01794,2.0381e-07,0.23,0.13,0
0.010165,0.0037658,0.021059,0.00097025,0.0066089,-0.00082313,0,0,0.037571,-0.014661,0,-0.0042803,0,0,0,0.021098,0.00093189,0.0066089,-2.3383,0.0095462,0.018012,2.0366e-07,0.24,0.13,0
0.010541,0.0038276,0.021051,0.00078252,0.0065502,-0.0012495,0,0,0.037703,-0.014996,0,-0.0064976,0,0,0,0.021133,0.00070141,0.0065502,-3.5166,0.0094614,0.018225,2.0737e-07,0.25,0.13,0
0.010919,0.0038897,0.021135,0.00054774,0.0065049,-0.0016601,0,0,0.038039,-0.015489,0,-0.0086325,0,0,0,0.021273,0.00041003,0.0065049,-4.5903,0.0093959,0.018581,2.1502e-07,0.26,0.13,0
0.011302,0.0039536,0.021344,0.00025883,0.0064807,-0.0020483,0,0,0.038643,-0.016177,0,-0.010651,0,0,0,0.021547,5.566e-05,0.0064807,-5.5178,0.009361,0.019107,2.2766e-07,0.27,0.13,0
0.011692,0.0040227,0.021712,-9.1679e-05,0.006486,-0.0023822,0,0,0.039586,-0.017102,0,-0.012388,0,0,0,0.021977,-0.00035741,0.006486,-6.1936,0.0093686,0.01982,2.463e-07,0.28,0.13,0
0.012093,0.0041022,0.022243,-0.00040046,0.0065528,-0.0026404,0,0,0.040795,-0.018079,0,-0.01373,0,0,0,0.022561,-0.00071815,0.0065528,-6.5939,0.0094652,0.020628,2.7027e-07,0.29,0.13,0
0.012508,0.004195,0.022904,-0.00059089,0.006694,-0.0028055,0,0,0.042146,-0.018941,0,-0.014588,0,0,0,0.023252,-0.00093921,0.006694,-6.7371,0.0096691,0.021421,2.9796e-07,0.3,0.13,0
0.012936,0.0042976,0.023631,-0.0008366,0.0068382,-0.0028279,0,0,0.04366,-0.019954,0,-0.014705,0,0,0,0.023969,-0.0011748,0.0068382,-6.5201,0.0098774,0.022247,3.2872e-07,0.31,0.13,0
0.013381,0.0044085,0.024364,-0.0011076,0.006977,-0.0026919,0,0,0.045207,-0.02102,0,-0.013998,0,0,0,0.024657,-0.0014001,0.006977,-5.9691,0.010078,0.023041,3.6013e-07,0.32,0.13,0
0.01384,0.0045316,0.025054,-0.0011393,0.0071744,-0.002467,0,0,0.046487,-0.021615,0,-0.012828,0,0,0,0.025292,-0.0013776,0.0071744,-5.3293,0.010363,0.023587,3.8772e-07,0.33,0.13,0
0.014311,0.0046673,0.025651,-0.0010087,0.0073928,-0.0022479,0,0,0.047472,-0.021844,0,-0.011689,0,0,0,0.025846,-0.0012031,0.0073928,-4.7807,0.010679,0.023938,4.1073e-07,0.34,0.13,0
0.01479,0.0048115,0.026163,-0.00091268,0.007575,-0.002047,0,0,0.048328,-0.022068,0,-0.010644,0,0,0,0.026322,-0.0010718,0.007575,-4.2936,0.010942,0.024255,4.315e-07,0.35,0.13,0
0.015277,0.0049616,0.02662,-0.00082197,0.0077393,-0.0018353,0,0,0.049089,-0.022259,0,-0.0095434,0,0,0,0.026746,-0.00094809,0.0077393,-3.8032,0.011179,0.024533,4.5043e-07,0.36,0.13,0
0.015772,0.0051165,0.027017,-0.000677,0.007902,-0.0016243,0,0,0.049699,-0.022305,0,-0.0084463,0,0,0,0.027115,-0.00077462,0.007902,-3.3396,0.011414,0.024721,4.6618e-07,0.37,0.13,0
0.016271,0.0052749,0.027346,-0.00049424,0.0080554,-0.0014416,0,0,0.050155,-0.022229,0,-0.0074964,0,0,0,0.027422,-0.00057042,0.0080554,-2.9518,0.011636,0.02483,4.7847e-07,0.38,0.13,0
0.016775,0.005435,0.027619,-0.00030796,0.0081933,-0.001301,0,0,0.050507,-0.022103,0,-0.0067651,0,0,0,0.027681,-0.00036961,0.0081933,-2.6578,0.011835,0.024899,4.8841e-07,0.39,0.13,0
0.017281,0.0055946,0.027854,-0.00014151,0.0083136,-0.0011994,0,0,0.050804,-0.021983,0,-0.006237,0,0,0,0.027906,-0.00019365,0.0083136,-2.4458,0.012009,0.024958,4.971e-07,0.4,0.13,0
0.017791,0.0057521,0.028062,-3.4747e-06,0.0084176,-0.0011284,0,0,0.051076,-0.021895,0,-0.0058679,0,0,0,0.028108,-4.9417e-05,0.0084176,-2.2962,0.012159,0.025023,5.0521e-07,0.41,0.13,0
0.018303,0.0059063,0.028251,0.00010422,0.0085065,-0.0010799,0,0,0.051335,-0.021846,0,-0.0056154,0,0,0,0.028293,6.2337e-05,0.0085065,-2.1918,0.012287,0.025097,5.1305e-07,0.42,0.13,0
0.018818,0.0060564,0.028423,0.0001826,0.0085817,-0.0010471,0,0,0.051588,-0.021838,0,-0.005445,0,0,0,0.028462,0.00014341,0.0085817,-2.1187,0.012396,0.025183,5.2072e-07,0.43,0.13,0
0.019335,0.0062018,0.028581,0.00023472,0.0086448,-0.0010249,0,0,0.051835,-0.021866,0,-0.0053297,0,0,0,0.028619,0.00019737,0.0086448,-2.0664,0.012487,0.025279,5.2827e-07,0.44,0.13,0
0.019854,0.0063422,0.028726,0.00026459,0.0086973,-0.0010095,0,0,0.052076,-0.021925,0,-0.0052492,0,0,0,0.028762,0.00022855,0.0086973,-2.0272,0.012563,0.025382,5.3565e-07,0.45,0.13,0
0.020376,0.0064774,0.02886,0.00027643,0.0087408,-0.00099786,0,0,0.052309,-0.022007,0,-0.0051889,0,0,0,0.028895,0.0002414,0.0087408,-1.9957,0.012626,0.02549,5.4282e-07,0.46,0.13,0
0.0209,0.0066073,0.028982,0.00027426,0.0087768,-0.00098823,0,0,0.052533,-0.022107,0,-0.0051388,0,0,0,0.029016,0.00024009,0.0087768,-1.9681,0.012678,0.025598,5.4973e-07,0.47,0.13,0
0.021427,0.0067321,0.029093,0.00026173,0.0088066,-0.00097934,0,0,0.052746,-0.022217,0,-0.0050926,0,0,0,0.029127,0.00022835,0.0088066,-1.9422,0.012721,0.025706,5.5631e-07,0.48,0.13,0
0.021955,0.0068518,0.029195,0.00024199,0.0088312,-0.00097044,0,0,0.052947,-0.022332,0,-0.0050463,0,0,0,0.029228,0.00020936,0.0088312,-1.9167,0.012756,0.025811,5.6253e-07,0.49,0.13,0
0.022486,0.0069664,0.029288,0.00021762,0.0088516,-0.00096118,0,0,0.053134,-0.022448,0,-0.0049981,0,0,0,0.02932,0.00018576,0.0088516,-1.8909,0.012786,0.025912,5.6836e-07,0.5,0.13,0
0.023018,0.0070762,0.029372,0.00019068,0.0088687,-0.00095143,0,0,0.053308,-0.022563,0,-0.0049475,0,0,0,0.029403,0.00015961,0.0088687,-1.8648,0.01281,0.026006,5.7377e-07,0.51,0.13,0
0.023552,0.0071813,0.029448,0.00016273,0.0088832,-0.00094124,0,0,0.053468,-0.022673,0,-0.0048945,0,0,0,0.029478,0.00013244,0.0088832,-1.8384,0.012831,0.026095,5.7877e-07,0.52,0.13,0
0.024087,0.0072819,0.029517,0.00013486,0.0088955,-0.0009307,0,0,0.053616,-0.022778,0,-0.0048396,0,0,0,0.029546,0.00010535,0.0088955,-1.812,0.012849,0.026177,5.8338e-07,0.53,0.13,0
0.024624,0.007378,0.02958,0.00010781,0.0089062,-0.00091991,0,0,0.053751,-0.022876,0,-0.0047835,0,0,0,0.029608,7.9081e-05,0.0089062,-1.7856,0.012865,0.026253,5.8762e-07,0.54,0.13,0
0.025162,0.0074698,0.029637,8.2054e-05,0.0089156,-0.00090895,0,0,0.053875,-0.022967,0,-0.0047266,0,0,0,0.029665,5.4086e-05,0.0089156,-1.7595,0.012878,0.026323,5.9152e-07,0.55,0.13,0
0.025702,0.0075574,0.029689,5.7828e-05,0.008924,-0.00089787,0,0,0.053989,-0.023052,0,-0.0046689,0,0,0,0.029716,3.0613e-05,0.008924,-1.7337,0.01289,0.026388,5.9511e-07,0.56,0.13,0
0.026242,0.007641,0.029737,3.5239e-05,0.0089317,-0.00088667,0,0,0.054094,-0.023131,0,-0.0046107,0,0,0,0.029764,8.7657e-06,0.0089317,-1.7081,0.012901,0.026447,5.9843e-07,0.57,0.13,0
0.026784,0.0077208,0.029782,1.4294e-05,0.0089388,-0.0008753,0,0,0.054192,-0.023204,0,-0.0045515,0,0,0,0.029807,-1.1445e-05,0.0089388,-1.6826,0.012912,0.026503,6.0152e-07,0.58,0.13,0
0.027326,0.0077967,0.029823,-5.0591e-06,0.0089455,-0.0008637,0,0,0.054282,-0.023271,0,-0.0044912,0,0,0,0.029848,-3.0069e-05,0.0089455,-1.657,0.012921,0.026554,6.0439e-07,0.59,0.13,0
0.027869,0.007869,0.029862,-2.2906e-05,0.0089518,-0.0008518,0,0,0.054367,-0.023334,0,-0.0044294,0,0,0,0.029887,-4.7183e-05,0.0089518,-1.6311,0.01293,0.026602,6.0709e-07,0.6,0.13,0
0.028413,0.0079377,0.029899,-3.9344e-05,0.008958,-0.0008395,0,0,0.054447,-0.023393,0,-0.0043654,0,0,0,0.029923,-6.2884e-05,0.008958,-1.6047,0.012939,0.026646,6.0963e-07,0.61,0.13,0
0.028958,0.008003,0.029934,-5.4475e-05,0.008964,-0.00082673,0,0,0.054523,-0.023448,0,-0.004299,0,0,0,0.029957,-7.7266e-05,0.008964,-1.5778,0.012948,0.026688,6.1204e-07,0.62,0.13,0
0.029504,0.0080651,0.029968,-6.8395e-05,0.0089698,-0.00081341,0,0,0.054595,-0.023499,0,-0.0042297,0,0,0,0.02999,-9.0422e-05,0.0089698,-1.5499,0.012956,0.026728,6.1433e-07,0.63,0.13,0
0.03005,0.0081239,0.03,-8.1192e-05,0.0089756,-0.00079947,0,0,0.054663,-0.023548,0,-0.0041572,0,0,0,0.030021,-0.00010244,0.0089756,-1.5212,0.012965,0.026765,6.1651e-07,0.64,0.13,0
0.030597,0.0081798,0.030031,-9.2945e-05,0.0089813,-0.00078486,0,0,0.054728,-0.023593,0,-0.0040813,0,0,0,0.030051,-0.00011339,0.0089813,-1.4913,0.012973,0.026801,6.186e-07,0.65,0.13,0
0.031145,0.0082327,0.03006,-0.00010373,0.008987,-0.00076955,0,0,0.054791,-0.023636,0,-0.0040017,0,0,0,0.03008,-0.00012336,0.008987,-1.4603,0.012981,0.026834,6.206e-07,0.66,0.13,0
0.031693,0.0082828,0.030089,-0.0001136,0.0089927,-0.00075353,0,0,0.054851,-0.023676,0,-0.0039184,0,0,0,0.030108,-0.0001324,0.0089927,-1.4282,0.012989,0.026866,6.2252e-07,0.67,0.13,0
0.032242,0.0083302,0.030117,-0.00012261,0.0089983,-0.00073679,0,0,0.054909,-0.023714,0,-0.0038313,0,0,0,0.030135,-0.00014057,0.0089983,-1.3948,0.012998,0.026897,6.2437e-07,0.68,0.13,0
0.032791,0.0083751,0.030144,-0.00013083,0.0090039,-0.00071933,0,0,0.054964,-0.02375,0,-0.0037405,0,0,0,0.030161,-0.00014793,0.0090039,-1.3602,0.013006,0.026926,6.2615e-07,0.69,0.13,0
0.033341,0.0084174,0.03017,-0.00013829,0.0090095,-0.00070119,0,0,0.055017,-0.023784,0,-0.0036462,0,0,0,0.030186,-0.00015452,0.0090095,-1.3245,0.013014,0.026954,6.2786e-07,0.7,0.13,0
0.033891,0.0084575,0.030195,-0.00014505,0.0090151,-0.00068238,0,0,0.055069,-0.023816,0,-0.0035484,0,0,0,0.030211,-0.0001604,0.0090151,-1.2877,0.013022,0.02698,6.2951e-07,0.71,0.13,0
0.034442,0.0084952,0.03022,-0.00015114,0.0090206,-0.00066294,0,0,0.055118,-0.023846,0,-0.0034473,0,0,0,0.030234,-0.00016562,0.0090206,-1.2498,0.01303,0.027005,6.311e-07,0.72,0.13,0
0.034994,0.0085308,0.030243,-0.00015662,0.009026,-0.00064291,0,0,0.055165,-0.023875,0,-0.0033431,0,0,0,0.030257,-0.00017022,0.009026,-1.2109,0.013038,0.027029,6.3262e-07,0.73,0.13,0
0.035546,0.0085644,0.030266,-0.00016151,0.0090314,-0.00062233,0,0,0.055211,-0.023902,0,-0.0032361,0,0,0,0.030279,-0.00017425,0.0090314,-1.1711,0.013045,0.027052,6.3409e-07,0.74,0.13,0
0.036098,0.0085959,0.030288,-0.00016587,0.0090368,-0.00060124,0,0,0.055254,-0.023927,0,-0.0031264,0,0,0,0.0303,-0.00017775,0.0090368,-1.1305,0.013053,0.027074,6.355e-07,0.75,0.13,0
0.036651,0.0086256,0.03031,-0.00016973,0.009042,-0.00057969,0,0,0.055296,-0.02395,0,-0.0030144,0,0,0,0.030321,-0.00018076,0.009042,-1.0891,0.013061,0.027094,6.3685e-07,0.76,0.13,0
0.037204,0.0086535,0.03033,-0.00017313,0.0090471,-0.00055771,0,0,0.055336,-0.023973,0,-0.0029001,0,0,0,0.03034,-0.00018334,0.0090471,-1.047,0.013068,0.027114,6.3814e-07,0.77,0.13,0
0.037757,0.0086796,0.03035,-0.00017612,0.0090521,-0.00053536,0,0,0.055374,-0.023993,0,-0.0027839,0,0,0,0.030359,-0.00018552,0.0090521,-1.0044,0.013075,0.027132,6.3938e-07,0.78,0.13,0
0.038311,0.0087041,0.030369,-0.00017872,0.009057,-0.00051266,0,0,0.055411,-0.024013,0,-0.0026658,0,0,0,0.030377,-0.00018734,0.009057,-0.96114,0.013082,0.02715,6.4057e-07,0.79,0.13,0
0.038866,0.0087271,0.030387,-0.00018098,0.0090618,-0.00048966,0,0,0.055445,-0.024031,0,-0.0025462,0,0,0,0.030395,-0.00018884,0.0090618,-0.91743,0.013089,0.027166,6.4169e-07,0.8,0.13,0
0.03942,0.0087485,0.030404,-0.00018293,0.0090664,-0.00046639,0,0,0.055478,-0.024048,0,-0.0024252,0,0,0,0.030411,-0.00019005,0.0090664,-0.87331,0.013096,0.027182,6.4277e-07,0.81,0.13,0
0.039975,0.0087684,0.030421,-0.0001846,0.0090708,-0.00044287,0,0,0.05551,-0.024064,0,-0.002303,0,0,0,0.030427,-0.00019102,0.0090708,-0.82881,0.013102,0.027197,6.4379e-07,0.82,0.13,0
0.04053,0.008787,0.030436,-0.00018603,0.0090751,-0.00041915,0,0,0.055539,-0.024079,0,-0.0021796,0,0,0,0.030442,-0.00019178,0.0090751,-0.784,0.013108,0.027211,6.4475e-07,0.83,0.13,0
0.041086,0.0088042,0.030451,-0.00018723,0.0090792,-0.00039523,0,0,0.055567,-0.024093,0,-0.0020552,0,0,0,0.030456,-0.00019234,0.0090792,-0.7389,0.013114,0.027224,6.4566e-07,0.84,0.13,0
0.041642,0.0088201,0.030465,-0.00018825,0.0090831,-0.00037115,0,0,0.055593,-0.024105,0,-0.00193,0,0,0,0.03047,-0.00019275,0.0090831,-0.69356,0.01312,0.027236,6.4652e-07,0.85,0.13,0
0.042198,0.0088348,0.030478,-0.00018909,0.0090868,-0.00034693,0,0,0.055618,-0.024117,0,-0.001804,0,0,0,0.030482,-0.00019303,0.0090868,-0.64802,0.013125,0.027247,6.4732e-07,0.86,0.13,0
0.042754,0.0088483,0.030491,-0.0001898,0.0090902,-0.00032258,0,0,0.055641,-0.024128,0,-0.0016774,0,0,0,0.030494,-0.0001932,0.0090902,-0.6023,0.01313,0.027258,6.4807e-07,0.87,0.13,0
0.043311,0.0088606,0.030502,-0.00019037,0.0090935,-0.00029812,0,0,0.055662,-0.024138,0,-0.0015502,0,0,0,0.030505,-0.00019328,0.0090935,-0.55642,0.013135,0.027268,6.4877e-07,0.88,0.13,0
0.043867,0.0088718,0.030512,-0.00019084,0.0090965,-0.00027357,0,0,0.055682,-0.024147,0,-0.0014225,0,0,0,0.030515,-0.00019329,0.0090965,-0.51042,0.013139,0.027277,6.4941e-07,0.89,0.13,0
0.044424,0.008882,0.030522,-0.00019123,0.0090993,-0.00024893,0,0,0.055699,-0.024155,0,-0.0012944,0,0,0,0.030524,-0.00019325,0.0090993,-0.46431,0.013143,0.027285,6.5e-07,0.9,0.13,0
0.044981,0.008891,0.030531,-0.00019153,0.0091018,-0.00022422,0,0,0.055716,-0.024163,0,-0.0011659,0,0,0,0.030533,-0.00019318,0.0091018,-0.4181,0.013147,0.027292,6.5053e-07,0.91,0.13,0
0.045539,0.0088991,0.030539,-0.00019177,0.0091041,-0.00019945,0,0,0.05573,-0.024169,0,-0.0010371,0,0,0,0.03054,-0.00019308,0.0091041,-0.37181,0.01315,0.027299,6.51e-07,0.92,0.13,0
0.046096,0.0089061,0.030546,-0.00019197,0.0091061,-0.00017462,0,0,0.055743,-0.024175,0,-0.00090803,0,0,0,0.030547,-0.00019297,0.0091061,-0.32547,0.013153,0.027305,6.5143e-07,0.93,0.13,0
0.046654,0.0089122,0.030552,-0.00019211,0.0091079,-0.00014975,0,0,0.055754,-0.02418,0,-0.00077871,0,0,0,0.030552,-0.00019285,0.0091079,-0.27906,0.013156,0.02731,6.5179e-07,0.94,0.13,0
0.047211,0.0089173,0.030557,-0.00019223,0.0091094,-0.00012485,0,0,0.055763,-0.024184,0,-0.00064921,0,0,0,0.030557,-0.00019274,0.0091094,-0.23261,0.013158,0.027314,6.521e-07,0.95,0.13,0
0.047769,0.0089214,0.030561,-0.00019231,0.0091106,-9.9913e-05,0,0,0.055771,-0.024188,0,-0.00051955,0,0,0,0.030561,-0.00019264,0.0091106,-0.18613,0.01316,0.027318,6.5236e-07,0.96,0.13,0
0.048326,0.0089246,0.030564,-0.00019237,0.0091116,-7.4954e-05,0,0,0.055777,-0.02419,0,-0.00038976,0,0,0,0.030564,-0.00019256,0.0091116,-0.13962,0.013161,0.02732,6.5255e-07,0.97,0.13,0
0.048884,0.0089269,0.030567,-0.00019241,0.0091123,-4.9979e-05,0,0,0.055781,-0.024192,0,-0.00025989,0,0,0,0.030567,-0.0001925,0.0091123,-0.093092,0.013162,0.027322,6.5269e-07,0.98,0.13,0
0.049442,0.0089283,0.030568,-0.00019243,0.0091127,-2.2803e-05,0,0,0.055784,-0.024193,0,-0.00011857,0,0,0,0.030568,-0.00019246,0.0091127,-0.04247,0.013163,0.027323,6.5278e-07,0.99,0.13,0
0.049721,0.0089287,0.030569,-0.00019244,0.0091128,-8.1174e-06,0,0,0.055785,-0.024194,0,-4.2211e-05,0,0,0,0.030569,-0.00019245,0.0091128,-0.015118,0.013163,0.027324,6.5281e-07,1,0.13,0
0.00020483,0.00017096,0.027566,0.011665,0.011769,0.0065553,0,0,0.041071,-0.00027087,0,0.034088,0,0,0,0.029921,0.0093105,0.011769,19.754,0.017,0.019498,3.6035e-07,0,0.14,0
0.00041071,0.00033786,0.027587,0.011497,0.011725,0.0064923,0,0,0.041242,-0.00059444,0,0.03376,0,0,0,0.029882,0.009202,0.011725,19.453,0.016936,0.019541,3.6177e-07,0.01,0.14,0
0.00082484,0.00066328,0.027659,0.011121,0.011634,0.0063161,0,0,0.041666,-0.0013343,0,0.032844,0,0,0,0.029799,0.0089815,0.011634,18.69,0.016805,0.019626,3.6443e-07,0.02,0.14,0
0.001244,0.00097142,0.027758,0.010668,0.011528,0.0060745,0,0,0.042198,-0.002235,0,0.031587,0,0,0,0.029701,0.0087253,0.011528,17.709,0.016651,0.019725,3.6739e-07,0.03,0.14,0
0.0016688,0.0012611,0.027846,0.010148,0.011398,0.0058019,0,0,0.042765,-0.0032503,0,0.03017,0,0,0,0.029583,0.0084116,0.011398,16.631,0.016464,0.019848,3.7103e-07,0.04,0.14,0
0.0020993,0.001531,0.027914,0.0095786,0.011248,0.0054985,0,0,0.043332,-0.0043398,0,0.028592,0,0,0,0.029441,0.0080514,0.011248,15.483,0.016247,0.019985,3.7473e-07,0.05,0.14,0
0.0025354,0.00178,0.02795,0.0089727,0.011077,0.0051681,0,0,0.043871,-0.0054709,0,0.026874,0,0,0,0.029271,0.0076517,0.011077,14.294,0.016,0.020127,3.7812e-07,0.06,0.14,0
0.0029767,0.002007,0.027948,0.0083403,0.010887,0.0048176,0,0,0.04436,-0.0066202,0,0.025051,0,0,0,0.029073,0.0072158,0.010887,13.091,0.015725,0.020273,3.8097e-07,0.07,0.14,0
0.0034226,0.0022114,0.027901,0.0076873,0.010677,0.0044568,0,0,0.044785,-0.0077723,0,0.023176,0,0,0,0.028845,0.0067436,0.010677,11.904,0.015422,0.020422,3.8321e-07,0.08,0.14,0
0.0038724,0.0023928,0.027806,0.0070166,0.010447,0.0040983,0,0,0.045133,-0.0089182,0,0.021311,0,0,0,0.028589,0.0062334,0.010447,10.765,0.01509,0.020576,3.8481e-07,0.09,0.14,0
0.0043253,0.0025516,0.027658,0.0063303,0.010197,0.003757,0,0,0.0454,-0.010052,0,0.019536,0,0,0,0.028305,0.0056838,0.010197,9.7084,0.014728,0.020737,3.8579e-07,0.1,0.14,0
0.0047804,0.0026888,0.027452,0.0056277,0.009924,0.0034515,0,0,0.045574,-0.01117,0,0.017948,0,0,0,0.027989,0.0050913,0.009924,8.7784,0.014335,0.020905,3.8594e-07,0.11,0.14,0
0.0052368,0.0028067,0.027167,0.0049168,0.009625,0.0032044,0,0,0.045608,-0.012241,0,0.016663,0,0,0,0.027622,0.0044614,0.009625,8.0323,0.013903,0.02106,3.8421e-07,0.12,0.14,0
0.0056926,0.0029079,0.026777,0.0042493,0.0093079,0.0030248,0,0,0.04542,-0.013152,0,0.015729,0,0,0,0.02718,0.0038464,0.0093079,7.5071,0.013445,0.021139,3.7829e-07,0.13,0.14,0
0.0061452,0.002995,0.026256,0.0036707,0.0089781,0.0028813,0,0,0.044923,-0.013799,0,0.014983,0,0,0,0.026625,0.0033024,0.0089781,7.1429,0.012968,0.021066,3.6546e-07,0.14,0.14,0
0.0065911,0.0030686,0.025619,0.0031253,0.0086233,0.0027555,0,0,0.044189,-0.014295,0,0.014328,0,0,0,0.025964,0.0027807,0.0086233,6.8697,0.012456,0.020885,3.4745e-07,0.15,0.14,0
0.007029,0.0031314,0.02494,0.002573,0.0082539,0.0026414,0,0,0.043384,-0.01477,0,0.013735,0,0,0,0.025264,0.0022491,0.0082539,6.6349,0.011922,0.020678,3.2836e-07,0.16,0.14,0
0.0074587,0.0031927,0.024253,0.0022039,0.0079371,0.0024874,0,0,0.042422,-0.014906,0,0.012935,0,0,0,0.024544,0.0019135,0.0079371,6.3504,0.011465,0.020301,3.0593e-07,0.17,0.14,0
0.0078774,0.0032567,0.023777,0.0020875,0.0077593,0.0022748,0,0,0.040718,-0.014391,0,0.011723,0,0,0,0.024028,0.0018361,0.0077593,5.9772,0.011208,0.019904,2.9324e-07,0.18,0.14,0
0.0082759,0.0033174,0.023433,0.0019831,0.0076248,0.0019385,0,0,0.038299,-0.01363,0,0.0097904,0,0,0,0.023632,0.0017839,0.0076248,5.2824,0.011014,0.019593,2.9396e-07,0.19,0.14,0
0.0086489,0.0033763,0.022875,0.0018551,0.007419,0.0014145,0,0,0.036382,-0.013105,0,0.0070444,0,0,0,0.022994,0.0017358,0.007419,4.0229,0.010716,0.019064,2.8609e-07,0.2,0.14,0
0.0090063,0.0034395,0.022424,0.001782,0.0072619,0.00081355,0,0,0.035505,-0.012851,0,0.0040479,0,0,0,0.022471,0.001735,0.0072619,2.3971,0.010489,0.0186,2.7706e-07,0.21,0.14,0
0.009359,0.0035045,0.02228,0.0016949,0.0071923,0.00023315,0,0,0.035214,-0.01283,0,0.0011801,0,0,0,0.022292,0.0016828,0.0071923,0.71101,0.010389,0.018481,2.7799e-07,0.22,0.14,0
0.0097106,0.0035671,0.022232,0.0015609,0.007138,-0.00030485,0,0,0.035173,-0.01299,0,-0.0014684,0,0,0,0.022244,0.0015496,0.007138,-0.86271,0.01031,0.018543,2.8184e-07,0.23,0.14,0
0.010062,0.0036272,0.022216,0.001392,0.0070825,-0.0007944,0,0,0.035241,-0.01325,0,-0.0038779,0,0,0,0.022254,0.0013549,0.0070825,-2.2719,0.01023,0.018705,2.8658e-07,0.24,0.14,0
0.010415,0.0036855,0.022208,0.0011893,0.0070193,-0.0012575,0,0,0.03537,-0.013586,0,-0.0061573,0,0,0,0.022292,0.0011055,0.0070193,-3.5649,0.010139,0.018936,2.9161e-07,0.25,0.14,0
0.01077,0.0037427,0.022212,0.00094818,0.0069479,-0.0017168,0,0,0.035566,-0.014009,0,-0.0084189,0,0,0,0.022362,0.00079807,0.0069479,-4.7925,0.010036,0.019241,2.9701e-07,0.26,0.14,0
0.011127,0.0038,0.022258,0.00065823,0.0068749,-0.0021918,0,0,0.035903,-0.014564,0,-0.010758,0,0,0,0.022496,0.00042056,0.0068749,-5.9819,0.0099303,0.01966,3.0366e-07,0.27,0.14,0
0.011488,0.0038594,0.022424,0.00029802,0.0068165,-0.002664,0,0,0.03654,-0.015359,0,-0.013096,0,0,0,0.022764,-4.2084e-05,0.0068165,-7.0399,0.009846,0.020268,3.1385e-07,0.28,0.14,0
0.011858,0.0039278,0.022912,-9.722e-05,0.0068444,-0.0031044,0,0,0.0378,-0.016406,0,-0.01529,0,0,0,0.023354,-0.00053934,0.0068444,-7.8124,0.0098864,0.021191,3.3427e-07,0.29,0.14,0
0.012247,0.0040098,0.023491,-0.00042726,0.0069192,-0.0034209,0,0,0.040133,-0.017782,0,-0.017095,0,0,0,0.023998,-0.00093376,0.0069192,-8.1617,0.0099944,0.02208,3.4975e-07,0.3,0.14,0
0.012666,0.0040992,0.023824,-0.0008038,0.006906,-0.0035026,0,0,0.043005,-0.019581,0,-0.017971,0,0,0,0.024327,-0.0013066,0.006906,-7.9961,0.0099753,0.022672,3.5152e-07,0.31,0.14,0
0.01311,0.0041968,0.024285,-0.0012293,0.0069167,-0.0034065,0,0,0.045158,-0.02118,0,-0.017714,0,0,0,0.024744,-0.0016881,0.0069167,-7.4739,0.0099908,0.023351,3.6774e-07,0.32,0.14,0
0.013569,0.0043135,0.024981,-0.0013663,0.0070844,-0.0031955,0,0,0.046531,-0.021972,0,-0.016617,0,0,0,0.025378,-0.0017635,0.0070844,-6.806,0.010233,0.023976,3.9687e-07,0.33,0.14,0
0.014041,0.0044471,0.025687,-0.0012678,0.0073258,-0.0029085,0,0,0.04774,-0.022343,0,-0.015124,0,0,0,0.02601,-0.0015902,0.0073258,-6.077,0.010582,0.024397,4.2424e-07,0.34,0.14,0
0.014524,0.0045884,0.026359,-0.0012047,0.0075462,-0.002607,0,0,0.048912,-0.022752,0,-0.013557,0,0,0,0.026611,-0.0014568,0.0075462,-5.3455,0.0109,0.024823,4.519e-07,0.35,0.14,0
0.015019,0.0047359,0.026921,-0.001123,0.0077393,-0.0022876,0,0,0.049872,-0.023042,0,-0.011895,0,0,0,0.027112,-0.0013138,0.0077393,-4.623,0.011179,0.025152,4.7508e-07,0.36,0.14,0
0.015521,0.0048904,0.027359,-0.00093021,0.0079288,-0.0019774,0,0,0.05052,-0.023033,0,-0.010282,0,0,0,0.0275,-0.0010709,0.0079288,-3.971,0.011453,0.025302,4.9132e-07,0.37,0.14,0
0.016029,0.00505,0.027701,-0.00067925,0.0081064,-0.0017289,0,0,0.050945,-0.022843,0,-0.0089905,0,0,0,0.027807,-0.00078609,0.0081064,-3.4674,0.011709,0.025346,5.0272e-07,0.38,0.14,0
0.01654,0.0052116,0.027974,-0.00044183,0.0082596,-0.0015474,0,0,0.051257,-0.022624,0,-0.0080463,0,0,0,0.028059,-0.00052708,0.0082596,-3.1032,0.011931,0.025362,5.1162e-07,0.39,0.14,0
0.017054,0.0053727,0.028209,-0.00023821,0.0083912,-0.0014168,0,0,0.051526,-0.022436,0,-0.0073673,0,0,0,0.02828,-0.00030946,0.0083912,-2.8406,0.012121,0.025383,5.196e-07,0.4,0.14,0
0.017571,0.0055314,0.028417,-7.1511e-05,0.0085038,-0.0013232,0,0,0.051775,-0.022296,0,-0.0068808,0,0,0,0.028479,-0.00013347,0.0085038,-2.6507,0.012283,0.02542,5.2719e-07,0.41,0.14,0
0.01809,0.0056863,0.028604,5.6782e-05,0.0085982,-0.0012563,0,0,0.052015,-0.022208,0,-0.006533,0,0,0,0.02866,1.1184e-06,0.0085982,-2.5127,0.01242,0.025472,5.3455e-07,0.42,0.14,0
0.018611,0.0058366,0.028772,0.00014914,0.0086764,-0.0012081,0,0,0.052249,-0.022171,0,-0.0062821,0,0,0,0.028823,9.7866e-05,0.0086764,-2.4105,0.012533,0.025541,5.4179e-07,0.43,0.14,0
0.019135,0.0059817,0.028925,0.00021028,0.0087405,-0.0011722,0,0,0.052479,-0.022179,0,-0.0060957,0,0,0,0.028973,0.0001622,0.0087405,-2.3321,0.012625,0.025622,5.4893e-07,0.44,0.14,0
0.019661,0.0061216,0.029064,0.00024566,0.0087928,-0.0011443,0,0,0.052704,-0.022222,0,-0.0059503,0,0,0,0.029109,0.00020005,0.0087928,-2.2688,0.012701,0.025713,5.5594e-07,0.45,0.14,0
0.020189,0.006256,0.02919,0.00026061,0.0088352,-0.0011211,0,0,0.052922,-0.022294,0,-0.0058297,0,0,0,0.029234,0.00021703,0.0088352,-2.2147,0.012762,0.02581,5.6274e-07,0.46,0.14,0
0.020719,0.006385,0.029305,0.00025995,0.0088694,-0.0011006,0,0,0.053132,-0.022385,0,-0.005723,0,0,0,0.029347,0.00021814,0.0088694,-2.1658,0.012811,0.02591,5.6928e-07,0.47,0.14,0
0.021252,0.0065087,0.029409,0.00024796,0.008897,-0.0010814,0,0,0.053331,-0.022488,0,-0.0056234,0,0,0,0.029449,0.00020777,0.008897,-2.12,0.012851,0.026009,5.7549e-07,0.48,0.14,0
0.021786,0.0066272,0.029503,0.00022825,0.0089193,-0.0010629,0,0,0.053517,-0.022597,0,-0.005527,0,0,0,0.029541,0.0001896,0.0089193,-2.0758,0.012883,0.026106,5.8132e-07,0.49,0.14,0
0.022322,0.0067407,0.029587,0.00020376,0.0089373,-0.0010446,0,0,0.05369,-0.022707,0,-0.0054322,0,0,0,0.029624,0.00016658,0.0089373,-2.0329,0.012909,0.026198,5.8674e-07,0.5,0.14,0
0.02286,0.0068494,0.029663,0.00017674,0.008952,-0.0010267,0,0,0.053849,-0.022816,0,-0.0053386,0,0,0,0.029699,0.00014097,0.008952,-1.9911,0.012931,0.026284,5.9173e-07,0.51,0.14,0
0.023399,0.0069534,0.029731,0.00014882,0.008964,-0.001009,0,0,0.053995,-0.022919,0,-0.0052469,0,0,0,0.029766,0.00011438,0.008964,-1.9508,0.012948,0.026365,5.963e-07,0.52,0.14,0
0.023939,0.0070529,0.029792,0.0001211,0.008974,-0.00099184,0,0,0.054127,-0.023017,0,-0.0051576,0,0,0,0.029825,8.7935e-05,0.008974,-1.912,0.012962,0.026439,6.0046e-07,0.53,0.14,0
0.024481,0.0071481,0.029847,9.4292e-05,0.0089823,-0.00097524,0,0,0.054248,-0.023109,0,-0.0050712,0,0,0,0.029879,6.2324e-05,0.0089823,-1.875,0.012974,0.026507,6.0426e-07,0.54,0.14,0
0.025024,0.007239,0.029896,6.8804e-05,0.0089895,-0.00095927,0,0,0.054357,-0.023194,0,-0.0049882,0,0,0,0.029927,3.7956e-05,0.0089895,-1.8398,0.012985,0.026569,6.0772e-07,0.55,0.14,0
0.025569,0.0073258,0.029941,4.4829e-05,0.0089957,-0.0009439,0,0,0.054458,-0.023272,0,-0.0049083,0,0,0,0.029971,1.5033e-05,0.0089957,-1.8063,0.012994,0.026627,6.1089e-07,0.56,0.14,0
0.026114,0.0074087,0.029982,2.2423e-05,0.0090013,-0.00092906,0,0,0.05455,-0.023345,0,-0.0048311,0,0,0,0.030011,-6.3803e-06,0.0090013,-1.7743,0.013002,0.026679,6.138e-07,0.57,0.14,0
0.02666,0.0074877,0.03002,1.5599e-06,0.0090064,-0.00091465,0,0,0.054634,-0.023412,0,-0.0047562,0,0,0,0.030047,-2.6301e-05,0.0090064,-1.7434,0.013009,0.026728,6.1649e-07,0.58,0.14,0
0.027206,0.007563,0.030055,-1.7834e-05,0.009011,-0.00090049,0,0,0.054713,-0.023475,0,-0.0046826,0,0,0,0.030082,-4.4789e-05,0.009011,-1.7134,0.013016,0.026773,6.1899e-07,0.59,0.14,0
0.027754,0.0076346,0.030087,-3.5849e-05,0.0090155,-0.00088644,0,0,0.054787,-0.023533,0,-0.0046095,0,0,0,0.030113,-6.1926e-05,0.0090155,-1.6839,0.013022,0.026815,6.2133e-07,0.6,0.14,0
0.028302,0.0077028,0.030118,-5.2581e-05,0.0090197,-0.00087234,0,0,0.054856,-0.023588,0,-0.0045361,0,0,0,0.030144,-7.7795e-05,0.0090197,-1.6546,0.013028,0.026854,6.2354e-07,0.61,0.14,0
0.028851,0.0077676,0.030148,-6.8119e-05,0.0090238,-0.00085803,0,0,0.054922,-0.023639,0,-0.0044617,0,0,0,0.030172,-9.2477e-05,0.0090238,-1.6251,0.013034,0.026891,6.2563e-07,0.62,0.14,0
0.0294,0.0078291,0.030176,-8.2544e-05,0.0090279,-0.00084337,0,0,0.054984,-0.023687,0,-0.0043855,0,0,0,0.030199,-0.00010604,0.0090279,-1.5952,0.01304,0.026926,6.2761e-07,0.63,0.14,0
0.029951,0.0078875,0.030202,-9.5923e-05,0.009032,-0.00082827,0,0,0.055043,-0.023732,0,-0.004307,0,0,0,0.030225,-0.00011856,0.009032,-1.5646,0.013046,0.026959,6.295e-07,0.64,0.14,0
0.030501,0.0079429,0.030228,-0.00010832,0.009036,-0.00081263,0,0,0.0551,-0.023775,0,-0.0042257,0,0,0,0.03025,-0.00013008,0.009036,-1.5332,0.013052,0.026991,6.3131e-07,0.65,0.14,0
0.031053,0.0079954,0.030253,-0.00011978,0.00904,-0.00079639,0,0,0.055154,-0.023815,0,-0.0041412,0,0,0,0.030274,-0.00014065,0.00904,-1.5008,0.013058,0.027021,6.3305e-07,0.66,0.14,0
0.031604,0.0080452,0.030277,-0.00013034,0.0090441,-0.00077949,0,0,0.055206,-0.023854,0,-0.0040534,0,0,0,0.030297,-0.00015032,0.0090441,-1.4674,0.013064,0.027049,6.3472e-07,0.67,0.14,0
0.032157,0.0080922,0.030301,-0.00014006,0.0090482,-0.00076193,0,0,0.055256,-0.023889,0,-0.003962,0,0,0,0.03032,-0.00015913,0.0090482,-1.4328,0.01307,0.027076,6.3632e-07,0.68,0.14,0
0.03271,0.0081367,0.030323,-0.00014897,0.0090523,-0.0007437,0,0,0.055304,-0.023923,0,-0.0038672,0,0,0,0.030341,-0.00016712,0.0090523,-1.3971,0.013076,0.027102,6.3786e-07,0.69,0.14,0
0.033263,0.0081787,0.030345,-0.00015711,0.0090564,-0.00072479,0,0,0.055351,-0.023955,0,-0.0037689,0,0,0,0.030362,-0.00017433,0.0090564,-1.3603,0.013081,0.027126,6.3933e-07,0.7,0.14,0
0.033817,0.0082184,0.030366,-0.00016451,0.0090605,-0.00070524,0,0,0.055395,-0.023985,0,-0.0036672,0,0,0,0.030383,-0.0001808,0.0090605,-1.3225,0.013087,0.027149,6.4075e-07,0.71,0.14,0
0.034371,0.0082559,0.030387,-0.00017121,0.0090647,-0.00068507,0,0,0.055438,-0.024013,0,-0.0035623,0,0,0,0.030402,-0.00018657,0.0090647,-1.2836,0.013093,0.027171,6.4212e-07,0.72,0.14,0
0.034925,0.0082912,0.030407,-0.00017726,0.0090688,-0.00066431,0,0,0.055478,-0.02404,0,-0.0034544,0,0,0,0.030421,-0.00019169,0.0090688,-1.2437,0.013099,0.027192,6.4343e-07,0.73,0.14,0
0.03548,0.0083245,0.030426,-0.00018268,0.009073,-0.000643,0,0,0.055518,-0.024065,0,-0.0033436,0,0,0,0.030439,-0.00019619,0.009073,-1.2029,0.013105,0.027212,6.4469e-07,0.74,0.14,0
0.036036,0.0083559,0.030444,-0.00018752,0.0090771,-0.00062119,0,0,0.055555,-0.024088,0,-0.0032302,0,0,0,0.030457,-0.00020013,0.0090771,-1.1612,0.013111,0.027231,6.4589e-07,0.75,0.14,0
0.036591,0.0083853,0.030462,-0.00019183,0.0090811,-0.00059891,0,0,0.055591,-0.02411,0,-0.0031144,0,0,0,0.030474,-0.00020353,0.0090811,-1.1188,0.013117,0.027249,6.4704e-07,0.76,0.14,0
0.037147,0.008413,0.030479,-0.00019563,0.0090852,-0.00057621,0,0,0.055625,-0.02413,0,-0.0029963,0,0,0,0.03049,-0.00020646,0.0090852,-1.0757,0.013123,0.027265,6.4815e-07,0.77,0.14,0
0.037704,0.0084389,0.030496,-0.00019898,0.0090891,-0.00055313,0,0,0.055658,-0.024149,0,-0.0028763,0,0,0,0.030506,-0.00020895,0.0090891,-1.032,0.013129,0.027281,6.492e-07,0.78,0.14,0
0.038261,0.0084632,0.030512,-0.00020191,0.009093,-0.0005297,0,0,0.055689,-0.024167,0,-0.0027544,0,0,0,0.030521,-0.00021105,0.009093,-0.98769,0.013134,0.027296,6.502e-07,0.79,0.14,0
0.038818,0.008486,0.030527,-0.00020446,0.0090968,-0.00050596,0,0,0.055719,-0.024183,0,-0.002631,0,0,0,0.030535,-0.0002128,0.0090968,-0.94291,0.01314,0.027311,6.5116e-07,0.8,0.14,0
0.039375,0.0085072,0.030542,-0.00020666,0.0091005,-0.00048194,0,0,0.055747,-0.024199,0,-0.0025061,0,0,0,0.030549,-0.00021423,0.0091005,-0.89769,0.013145,0.027324,6.5207e-07,0.81,0.14,0
0.039933,0.008527,0.030556,-0.00020856,0.0091041,-0.00045767,0,0,0.055774,-0.024213,0,-0.0023799,0,0,0,0.030562,-0.00021538,0.0091041,-0.85208,0.01315,0.027337,6.5293e-07,0.82,0.14,0
0.040491,0.0085455,0.030569,-0.00021019,0.0091075,-0.00043318,0,0,0.055799,-0.024226,0,-0.0022526,0,0,0,0.030575,-0.0002163,0.0091075,-0.80613,0.013155,0.027348,6.5375e-07,0.83,0.14,0
0.041049,0.0085625,0.030581,-0.00021157,0.0091109,-0.0004085,0,0,0.055823,-0.024238,0,-0.0021242,0,0,0,0.030587,-0.000217,0.0091109,-0.75988,0.01316,0.027359,6.5452e-07,0.84,0.14,0
0.041607,0.0085783,0.030593,-0.00021275,0.009114,-0.00038365,0,0,0.055845,-0.02425,0,-0.001995,0,0,0,0.030598,-0.00021753,0.009114,-0.71337,0.013165,0.02737,6.5524e-07,0.85,0.14,0
0.042166,0.0085929,0.030604,-0.00021373,0.0091171,-0.00035864,0,0,0.055866,-0.02426,0,-0.0018649,0,0,0,0.030608,-0.00021792,0.0091171,-0.66663,0.013169,0.027379,6.5592e-07,0.86,0.14,0
0.042724,0.0086063,0.030614,-0.00021455,0.0091199,-0.0003335,0,0,0.055885,-0.02427,0,-0.0017342,0,0,0,0.030618,-0.00021817,0.0091199,-0.61969,0.013173,0.027388,6.5655e-07,0.87,0.14,0
0.043283,0.0086185,0.030624,-0.00021524,0.0091226,-0.00030824,0,0,0.055903,-0.024278,0,-0.0016029,0,0,0,0.030627,-0.00021833,0.0091226,-0.57257,0.013177,0.027396,6.5714e-07,0.88,0.14,0
0.043842,0.0086297,0.030633,-0.0002158,0.0091251,-0.00028288,0,0,0.05592,-0.024286,0,-0.001471,0,0,0,0.030635,-0.00021841,0.0091251,-0.52531,0.013181,0.027404,6.5768e-07,0.89,0.14,0
0.044402,0.0086397,0.030641,-0.00021627,0.0091274,-0.00025742,0,0,0.055935,-0.024294,0,-0.0013386,0,0,0,0.030643,-0.00021842,0.0091274,-0.47792,0.013184,0.027411,6.5818e-07,0.9,0.14,0
0.044961,0.0086487,0.030648,-0.00021664,0.0091295,-0.00023189,0,0,0.055949,-0.0243,0,-0.0012058,0,0,0,0.03065,-0.00021839,0.0091295,-0.43041,0.013187,0.027417,6.5863e-07,0.91,0.14,0
0.045521,0.0086567,0.030655,-0.00021694,0.0091314,-0.00020629,0,0,0.055961,-0.024306,0,-0.0010727,0,0,0,0.030656,-0.00021833,0.0091314,-0.38281,0.01319,0.027423,6.5903e-07,0.92,0.14,0
0.04608,0.0086637,0.030661,-0.00021719,0.0091331,-0.00018062,0,0,0.055972,-0.024311,0,-0.00093925,0,0,0,0.030662,-0.00021825,0.0091331,-0.33513,0.013192,0.027427,6.5939e-07,0.93,0.14,0
0.04664,0.0086697,0.030666,-0.00021738,0.0091346,-0.00015491,0,0,0.055982,-0.024315,0,-0.00080554,0,0,0,0.030667,-0.00021817,0.0091346,-0.28737,0.013194,0.027432,6.5969e-07,0.94,0.14,0
0.0472,0.0086747,0.03067,-0.00021753,0.0091359,-0.00012916,0,0,0.05599,-0.024319,0,-0.00067161,0,0,0,0.030671,-0.00021808,0.0091359,-0.23956,0.013196,0.027435,6.5996e-07,0.95,0.14,0
0.04776,0.0086789,0.030674,-0.00021764,0.0091369,-0.00010336,0,0,0.055996,-0.024322,0,-0.0005375,0,0,0,0.030674,-0.00021799,0.0091369,-0.1917,0.013198,0.027438,6.6017e-07,0.96,0.14,0
0.04832,0.008682,0.030677,-0.00021772,0.0091377,-7.7547e-05,0,0,0.056001,-0.024324,0,-0.00040325,0,0,0,0.030677,-0.00021792,0.0091377,-0.14381,0.013199,0.02744,6.6034e-07,0.97,0.14,0
0.04888,0.0086843,0.030679,-0.00021777,0.0091383,-5.1709e-05,0,0,0.056005,-0.024326,0,-0.00026889,0,0,0,0.030679,-0.00021787,0.0091383,-0.095887,0.0132,0.027442,6.6046e-07,0.98,0.14,0
0.04944,0.0086857,0.03068,-0.00021781,0.0091386,-2.3685e-05,0,0,0.056007,-0.024327,0,-0.00012316,0,0,0,0.03068,-0.00021784,0.0091386,-0.043919,0.0132,0.027443,6.6053e-07,0.99,0.14,0
0.04972,0.0086861,0.03068,-0.00021782,0.0091387,-8.5844e-06,0,0,0.056008,-0.024327,0,-4.4639e-05,0,0,0,0.03068,-0.00021783,0.0091387,-0.015917,0.0132,0.027443,6.6055e-07,1,0.14,0
0.00020814,0.00016835,0.028012,0.011863,0.011963,0.0064562,0,0,0.041729,-0.00025812,0,0.033572,0,0,0,0.030277,0.0095987,0.011963,19.324,0.017279,0.019603,3.6802e-07,0,0.15,0
0.00041729,0.00033214,0.028032,0.011703,0.011921,0.0063917,0,0,0.04189,-0.00056515,0,0.033237,0,0,0,0.030238,0.0094972,0.011921,19.031,0.017219,0.019642,3.6932e-07,0.01,0.15,0
0.00083781,0.00065043,0.0281,0.011348,0.011834,0.006213,0,0,0.042292,-0.0012656,0,0.032307,0,0,0,0.030156,0.0092919,0.011834,18.286,0.017094,0.019717,3.7168e-07,0.02,0.15,0
0.0012631,0.00094987,0.028194,0.01092,0.011734,0.0059756,0,0,0.042796,-0.0021172,0,0.031073,0,0,0,0.030063,0.0090507,0.011734,17.344,0.016949,0.019808,3.7456e-07,0.03,0.15,0
0.0016937,0.0012297,0.028279,0.010427,0.011612,0.0057188,0,0,0.043335,-0.0030804,0,0.029738,0,0,0,0.029958,0.0087483,0.011612,16.33,0.016773,0.019933,3.7858e-07,0.04,0.15,0
0.0021298,0.001489,0.028344,0.0098829,0.011468,0.0054413,0,0,0.043878,-0.0041217,0,0.028295,0,0,0,0.029833,0.0083944,0.011468,15.266,0.016565,0.020079,3.8311e-07,0.05,0.15,0
0.0025713,0.001727,0.028382,0.009298,0.011304,0.0051452,0,0,0.044402,-0.0052152,0,0.026755,0,0,0,0.029684,0.0079951,0.011304,14.175,0.016328,0.020239,3.8769e-07,0.06,0.15,0
0.0030179,0.0019426,0.028383,0.0086788,0.011119,0.0048357,0,0,0.044888,-0.0063433,0,0.025146,0,0,0,0.02951,0.007552,0.011119,13.079,0.01606,0.02041,3.9208e-07,0.07,0.15,0
0.003469,0.0021355,0.028341,0.0080273,0.010911,0.0045216,0,0,0.04532,-0.0074967,0,0.023512,0,0,0,0.029306,0.0070625,0.010911,12.005,0.01576,0.020592,3.9614e-07,0.08,0.15,0
0.0039243,0.0023053,0.028251,0.0073439,0.010678,0.004215,0,0,0.045688,-0.0086696,0,0.021918,0,0,0,0.029072,0.0065226,0.010678,10.986,0.015424,0.020786,3.998e-07,0.09,0.15,0
0.0043828,0.0024526,0.028104,0.0066289,0.01042,0.0039298,0,0,0.045979,-0.0098566,0,0.020435,0,0,0,0.028804,0.0059293,0.01042,10.055,0.015051,0.020993,4.0286e-07,0.1,0.15,0
0.0048438,0.0025782,0.027907,0.0058873,0.010138,0.0036842,0,0,0.046199,-0.011053,0,0.019158,0,0,0,0.02851,0.0052847,0.010138,9.2526,0.014644,0.02122,4.0552e-07,0.11,0.15,0
0.0053068,0.0026846,0.027648,0.005104,0.0098255,0.0035063,0,0,0.046338,-0.012276,0,0.018233,0,0,0,0.028183,0.0045692,0.0098255,8.6376,0.014192,0.021475,4.0776e-07,0.12,0.15,0
0.0057706,0.0027761,0.027277,0.0043223,0.0094797,0.0034298,0,0,0.046272,-0.013409,0,0.017835,0,0,0,0.02778,0.0038188,0.0094797,8.309,0.013693,0.021694,4.0667e-07,0.13,0.15,0
0.0062322,0.0028566,0.026795,0.0037062,0.0091503,0.0034415,0,0,0.045876,-0.014155,0,0.017896,0,0,0,0.027301,0.0032001,0.0091503,8.2776,0.013217,0.021746,3.9888e-07,0.14,0.15,0
0.0066881,0.002926,0.026495,0.0032803,0.0089325,0.0034803,0,0,0.044622,-0.014328,0,0.017785,0,0,0,0.027016,0.0027595,0.0089325,8.3506,0.012903,0.021835,4.0423e-07,0.15,0.15,0
0.0071281,0.0029855,0.026283,0.0029281,0.0087632,0.0033588,0,0,0.042414,-0.014109,0,0.016664,0,0,0,0.026778,0.0024326,0.0087632,8.1397,0.012658,0.021879,4.1958e-07,0.16,0.15,0
0.0075433,0.0030465,0.02586,0.0027438,0.0085813,0.0029272,0,0,0.04067,-0.013809,0,0.014472,0,0,0,0.026258,0.0023463,0.0085813,7.3501,0.012395,0.021486,4.1425e-07,0.17,0.15,0
0.007945,0.003117,0.025844,0.0026578,0.0085506,0.0023401,0,0,0.038877,-0.013237,0,0.011633,0,0,0,0.026125,0.0023766,0.0085506,6.1048,0.012351,0.021344,4.1703e-07,0.18,0.15,0
0.0083248,0.0031881,0.026315,0.0024448,0.008628,0.0017591,0,0,0.035513,-0.012284,0,0.0084794,0,0,0,0.026504,0.002256,0.008628,4.744,0.012463,0.021775,4.4788e-07,0.19,0.15,0
0.0086632,0.0032546,0.026729,0.0022798,0.0087027,0.0012022,0,0,0.032728,-0.011605,0,0.0055557,0,0,0,0.026836,0.0021729,0.0087027,3.3872,0.012571,0.022134,4.8461e-07,0.2,0.15,0
0.0089834,0.00332,0.027163,0.0022333,0.0088188,0.00065313,0,0,0.032258,-0.01156,0,0.0030188,0,0,0,0.027205,0.0021914,0.0088188,1.9205,0.012738,0.022446,5.2276e-07,0.21,0.15,0
0.0093084,0.0033836,0.027588,0.0021433,0.0089193,0.00011867,0,0,0.032697,-0.011817,0,0.00071867,0,0,0,0.027598,0.0021327,0.0089193,0.45323,0.012883,0.022841,5.5711e-07,0.22,0.15,0
0.0096373,0.0034436,0.027839,0.0019894,0.0089486,-0.00036762,0,0,0.033029,-0.012115,0,-0.0013156,0,0,0,0.02785,0.0019788,0.0089486,-0.82783,0.012926,0.023186,5.8089e-07,0.23,0.15,0
0.0099689,0.0035008,0.027951,0.0017987,0.0089248,-0.00080952,0,0,0.033245,-0.01241,0,-0.0031389,0,0,0,0.027982,0.001767,0.0089248,-1.9487,0.012891,0.02347,5.9591e-07,0.24,0.15,0
0.010302,0.0035559,0.027951,0.0015818,0.0088599,-0.0012276,0,0,0.033361,-0.012698,0,-0.0048595,0,0,0,0.02802,0.0015129,0.0088599,-2.9792,0.012798,0.023704,6.0388e-07,0.25,0.15,0
0.010636,0.0036095,0.027841,0.0013335,0.0087523,-0.001641,0,0,0.033382,-0.012988,0,-0.0065734,0,0,0,0.027963,0.0012117,0.0087523,-3.9784,0.012642,0.023891,6.0458e-07,0.26,0.15,0
0.01097,0.0036624,0.02759,0.0010316,0.0085864,-0.0020699,0,0,0.0333,-0.013299,0,-0.0083871,0,0,0,0.027785,0.00083647,0.0085864,-5.0021,0.012403,0.024031,5.9581e-07,0.27,0.15,0
0.011302,0.0037155,0.027181,0.00063955,0.0083461,-0.0025063,0,0,0.033151,-0.013703,0,-0.010306,0,0,0,0.027471,0.00034955,0.0083461,-6.023,0.012055,0.02414,5.7555e-07,0.28,0.15,0
0.011633,0.0037736,0.026773,0.00014863,0.0080763,-0.0028996,0,0,0.033983,-0.014509,0,-0.012294,0,0,0,0.027157,-0.00023623,0.0080763,-6.8234,0.011666,0.024331,5.497e-07,0.29,0.15,0
0.011986,0.0038384,0.026361,-0.00020956,0.0078453,-0.0032405,0,0,0.037222,-0.016179,0,-0.01472,0,0,0,0.026819,-0.00066807,0.0078453,-7.3968,0.011332,0.024376,5.2081e-07,0.3,0.15,0
0.012386,0.0039055,0.025887,-0.00048116,0.0076217,-0.0035585,0,0,0.041105,-0.018369,0,-0.017309,0,0,0,0.026407,-0.0010015,0.0076217,-7.9207,0.011009,0.02428,4.9555e-07,0.31,0.15,0
0.012812,0.0039849,0.025907,-0.0010218,0.0074657,-0.0038437,0,0,0.043419,-0.020182,0,-0.018976,0,0,0,0.026478,-0.0015923,0.0074657,-8.2096,0.010784,0.02482,5.0077e-07,0.32,0.15,0
0.013258,0.0040922,0.026328,-0.0014626,0.0074596,-0.0039249,0,0,0.045681,-0.021632,0,-0.019443,0,0,0,0.026893,-0.0020274,0.0074596,-8.0027,0.010775,0.025537,5.1041e-07,0.33,0.15,0
0.013733,0.0042204,0.026557,-0.0015528,0.0075012,-0.0036629,0,0,0.04842,-0.022979,0,-0.01868,0,0,0,0.027038,-0.0020344,0.0075012,-7.3092,0.010835,0.02567,4.9443e-07,0.34,0.15,0
0.01423,0.0043565,0.026892,-0.0016094,0.0075848,-0.0032135,0,0,0.050199,-0.023905,0,-0.01671,0,0,0,0.027258,-0.0019759,0.0075848,-6.3391,0.010956,0.025818,4.9416e-07,0.35,0.15,0
0.014737,0.0045007,0.027417,-0.0015419,0.0077626,-0.0027415,0,0,0.051102,-0.024192,0,-0.014256,0,0,0,0.02768,-0.0018052,0.0077626,-5.3489,0.011213,0.026055,5.1339e-07,0.36,0.15,0
0.015252,0.0046558,0.027842,-0.0012427,0.0079798,-0.0023259,0,0,0.051642,-0.023979,0,-0.012095,0,0,0,0.02803,-0.0014309,0.0079798,-4.5334,0.011526,0.026063,5.2624e-07,0.37,0.15,0
0.01577,0.0048181,0.028158,-0.00090478,0.0081761,-0.0020171,0,0,0.051954,-0.02361,0,-0.010489,0,0,0,0.0283,-0.0010462,0.0081761,-3.944,0.01181,0.025992,5.3444e-07,0.38,0.15,0
0.016291,0.0049825,0.028421,-0.00061409,0.008342,-0.0017939,0,0,0.052205,-0.023286,0,-0.0093283,0,0,0,0.028533,-0.0007258,0.008342,-3.5167,0.01205,0.025942,5.4163e-07,0.39,0.15,0
0.016814,0.0051458,0.028653,-0.00036313,0.008487,-0.0016303,0,0,0.052432,-0.02301,0,-0.0084776,0,0,0,0.028745,-0.00045529,0.008487,-3.2016,0.012259,0.025914,5.4851e-07,0.4,0.15,0
0.01734,0.0053062,0.028853,-0.00016051,0.0086078,-0.0015108,0,0,0.052638,-0.022798,0,-0.0078559,0,0,0,0.028932,-0.00023953,0.0086078,-2.9695,0.012434,0.025907,5.549e-07,0.41,0.15,0
0.017867,0.0054622,0.029027,-7.2129e-06,0.0087061,-0.0014239,0,0,0.052836,-0.022655,0,-0.0074043,0,0,0,0.029098,-7.7283e-05,0.0087061,-2.7984,0.012575,0.025924,5.6111e-07,0.42,0.15,0
0.018396,0.005613,0.029182,0.00010143,0.008785,-0.0013594,0,0,0.053032,-0.022577,0,-0.0070687,0,0,0,0.029246,3.772e-05,0.008785,-2.6685,0.012689,0.025964,5.673e-07,0.43,0.15,0
0.018928,0.0057582,0.029321,0.00017309,0.0088481,-0.0013094,0,0,0.053229,-0.022555,0,-0.0068089,0,0,0,0.02938,0.00011414,0.0088481,-2.5653,0.012781,0.026022,5.735e-07,0.44,0.15,0
0.019461,0.0058977,0.029446,0.0002151,0.0088983,-0.0012688,0,0,0.053424,-0.022576,0,-0.0065978,0,0,0,0.029501,0.00015994,0.0088983,-2.4794,0.012853,0.026093,5.7965e-07,0.45,0.15,0
0.019996,0.0060315,0.029559,0.00023397,0.0089379,-0.0012341,0,0,0.053615,-0.02263,0,-0.0064171,0,0,0,0.029611,0.00018197,0.0089379,-2.4043,0.01291,0.026173,5.8566e-07,0.46,0.15,0
0.020533,0.0061596,0.029661,0.00023541,0.0089689,-0.0012028,0,0,0.053799,-0.022707,0,-0.0062544,0,0,0,0.02971,0.00018621,0.0089689,-2.3358,0.012955,0.026258,5.9147e-07,0.47,0.15,0
0.021072,0.0062824,0.029752,0.00022448,0.008993,-0.0011735,0,0,0.053974,-0.022798,0,-0.006102,0,0,0,0.029799,0.00017782,0.008993,-2.2714,0.01299,0.026344,5.9698e-07,0.48,0.15,0
0.021613,0.0063998,0.029834,0.0002054,0.0090119,-0.0011454,0,0,0.054138,-0.022897,0,-0.005956,0,0,0,0.029878,0.00016111,0.0090119,-2.2099,0.013017,0.026428,6.0213e-07,0.49,0.15,0
0.022155,0.0065123,0.029907,0.00018148,0.0090265,-0.0011183,0,0,0.054289,-0.022997,0,-0.005815,0,0,0,0.029949,0.00013941,0.0090265,-2.1509,0.013038,0.026508,6.0688e-07,0.5,0.15,0
0.022699,0.0066199,0.029971,0.00015516,0.009038,-0.0010922,0,0,0.054427,-0.023095,0,-0.0056793,0,0,0,0.030011,0.00011516,0.009038,-2.0946,0.013055,0.026583,6.1121e-07,0.51,0.15,0
0.023243,0.0067229,0.030028,0.00012811,0.009047,-0.0010673,0,0,0.054552,-0.023189,0,-0.0055499,0,0,0,0.030066,9.0021e-05,0.009047,-2.0413,0.013068,0.026652,6.1514e-07,0.52,0.15,0
0.02379,0.0068215,0.030079,0.0001014,0.0090541,-0.0010438,0,0,0.054664,-0.023277,0,-0.0054276,0,0,0,0.030115,6.5074e-05,0.0090541,-1.9914,0.013078,0.026715,6.1867e-07,0.53,0.15,0
0.024337,0.0069158,0.030123,7.5673e-05,0.0090597,-0.0010217,0,0,0.054766,-0.023359,0,-0.0053129,0,0,0,0.030158,4.0947e-05,0.0090597,-1.945,0.013086,0.026772,6.2186e-07,0.54,0.15,0
0.024885,0.0070059,0.030163,5.1235e-05,0.0090644,-0.0010011,0,0,0.054857,-0.023434,0,-0.0052058,0,0,0,0.030197,1.7968e-05,0.0090644,-1.9018,0.013093,0.026825,6.2474e-07,0.55,0.15,0
0.025434,0.007092,0.030199,2.8209e-05,0.0090682,-0.00098188,0,0,0.05494,-0.023504,0,-0.0051058,0,0,0,0.030231,-3.728e-06,0.0090682,-1.8618,0.013098,0.026873,6.2736e-07,0.56,0.15,0
0.025984,0.0071741,0.030232,6.5948e-06,0.0090714,-0.00096385,0,0,0.055016,-0.023569,0,-0.005012,0,0,0,0.030262,-2.4125e-05,0.0090714,-1.8245,0.013103,0.026917,6.2976e-07,0.57,0.15,0
0.026534,0.0072525,0.030261,-1.3672e-05,0.0090743,-0.0009468,0,0,0.055086,-0.023629,0,-0.0049234,0,0,0,0.030291,-4.3265e-05,0.0090743,-1.7894,0.013107,0.026958,6.3197e-07,0.58,0.15,0
0.027085,0.0073272,0.030289,-3.2678e-05,0.0090769,-0.0009305,0,0,0.055151,-0.023685,0,-0.0048386,0,0,0,0.030317,-6.1217e-05,0.0090769,-1.7559,0.013111,0.026996,6.3403e-07,0.59,0.15,0
0.027637,0.0073983,0.030315,-5.0515e-05,0.0090793,-0.00091468,0,0,0.055212,-0.023737,0,-0.0047564,0,0,0,0.030342,-7.8053e-05,0.0090793,-1.7237,0.013114,0.027031,6.3596e-07,0.6,0.15,0
0.02819,0.0074659,0.030339,-6.7266e-05,0.0090816,-0.00089912,0,0,0.05527,-0.023787,0,-0.0046754,0,0,0,0.030366,-9.3839e-05,0.0090816,-1.6922,0.013118,0.027065,6.3778e-07,0.61,0.15,0
0.028743,0.0075302,0.030362,-8.2996e-05,0.0090838,-0.00088359,0,0,0.055324,-0.023834,0,-0.0045946,0,0,0,0.030388,-0.00010863,0.0090838,-1.6609,0.013121,0.027096,6.3951e-07,0.62,0.15,0
0.029296,0.0075913,0.030385,-9.7761e-05,0.0090861,-0.00086789,0,0,0.055376,-0.023878,0,-0.004513,0,0,0,0.030409,-0.00012246,0.0090861,-1.6295,0.013124,0.027126,6.4116e-07,0.63,0.15,0
0.02985,0.0076493,0.030406,-0.0001116,0.0090883,-0.00085188,0,0,0.055426,-0.02392,0,-0.0044298,0,0,0,0.03043,-0.00013537,0.0090883,-1.5976,0.013128,0.027155,6.4274e-07,0.64,0.15,0
0.030405,0.0077043,0.030427,-0.00012454,0.0090906,-0.00083543,0,0,0.055474,-0.023959,0,-0.0043443,0,0,0,0.03045,-0.00014738,0.0090906,-1.5651,0.013131,0.027182,6.4425e-07,0.65,0.15,0
0.03096,0.0077564,0.030447,-0.00013661,0.009093,-0.00081845,0,0,0.05552,-0.023997,0,-0.0042559,0,0,0,0.030469,-0.00015851,0.009093,-1.5318,0.013134,0.027208,6.4571e-07,0.66,0.15,0
0.031515,0.0078057,0.030466,-0.00014784,0.0090955,-0.00080087,0,0,0.055564,-0.024033,0,-0.0041645,0,0,0,0.030487,-0.00016878,0.0090955,-1.4974,0.013138,0.027232,6.4711e-07,0.67,0.15,0
0.032071,0.0078524,0.030485,-0.00015823,0.009098,-0.00078266,0,0,0.055606,-0.024066,0,-0.0040698,0,0,0,0.030505,-0.00017821,0.009098,-1.4621,0.013142,0.027256,6.4845e-07,0.68,0.15,0
0.032627,0.0078966,0.030503,-0.00016781,0.0091006,-0.00076379,0,0,0.055647,-0.024098,0,-0.0039717,0,0,0,0.030522,-0.00018682,0.0091006,-1.4256,0.013145,0.027278,6.4974e-07,0.69,0.15,0
0.033184,0.0079383,0.030521,-0.0001766,0.0091033,-0.00074427,0,0,0.055686,-0.024128,0,-0.0038702,0,0,0,0.030539,-0.00019465,0.0091033,-1.388,0.013149,0.027299,6.5098e-07,0.7,0.15,0
0.033741,0.0079777,0.030538,-0.00018464,0.009106,-0.00072411,0,0,0.055723,-0.024156,0,-0.0037654,0,0,0,0.030555,-0.0002017,0.009106,-1.3494,0.013153,0.027319,6.5217e-07,0.71,0.15,0
0.034298,0.0080149,0.030555,-0.00019194,0.0091088,-0.00070334,0,0,0.055759,-0.024182,0,-0.0036573,0,0,0,0.030571,-0.00020803,0.0091088,-1.3097,0.013157,0.027338,6.5331e-07,0.72,0.15,0
0.034856,0.00805,0.030571,-0.00019855,0.0091116,-0.00068198,0,0,0.055793,-0.024206,0,-0.0035463,0,0,0,0.030586,-0.00021367,0.0091116,-1.269,0.013161,0.027356,6.544e-07,0.73,0.15,0
0.035414,0.0080831,0.030586,-0.0002045,0.0091145,-0.00066008,0,0,0.055826,-0.024229,0,-0.0034324,0,0,0,0.0306,-0.00021866,0.0091145,-1.2275,0.013165,0.027373,6.5545e-07,0.74,0.15,0
0.035973,0.0081142,0.030601,-0.00020983,0.0091174,-0.00063767,0,0,0.055858,-0.024251,0,-0.0033159,0,0,0,0.030614,-0.00022304,0.0091174,-1.1851,0.01317,0.027389,6.5645e-07,0.75,0.15,0
0.036531,0.0081434,0.030616,-0.00021458,0.0091203,-0.0006148,0,0,0.055888,-0.024271,0,-0.003197,0,0,0,0.030628,-0.00022685,0.0091203,-1.1419,0.013174,0.027404,6.574e-07,0.76,0.15,0
0.03709,0.0081709,0.03063,-0.00021879,0.0091233,-0.0005915,0,0,0.055917,-0.024289,0,-0.0030758,0,0,0,0.030641,-0.00023014,0.0091233,-1.098,0.013178,0.027418,6.5831e-07,0.77,0.15,0
0.03765,0.0081967,0.030643,-0.0002225,0.0091262,-0.00056782,0,0,0.055944,-0.024307,0,-0.0029527,0,0,0,0.030654,-0.00023296,0.0091262,-1.0535,0.013182,0.027432,6.5918e-07,0.78,0.15,0
0.038209,0.0082208,0.030656,-0.00022576,0.0091291,-0.00054379,0,0,0.05597,-0.024323,0,-0.0028277,0,0,0,0.030666,-0.00023534,0.0091291,-1.0084,0.013186,0.027444,6.6001e-07,0.79,0.15,0
0.038769,0.0082434,0.030668,-0.0002286,0.0091319,-0.00051944,0,0,0.055995,-0.024337,0,-0.0027011,0,0,0,0.030677,-0.00023735,0.0091319,-0.96286,0.013191,0.027456,6.6079e-07,0.8,0.15,0
0.039329,0.0082645,0.03068,-0.00023107,0.0091347,-0.00049481,0,0,0.056018,-0.024351,0,-0.002573,0,0,0,0.030688,-0.000239,0.0091347,-0.91681,0.013195,0.027467,6.6154e-07,0.81,0.15,0
0.039889,0.0082842,0.030691,-0.00023321,0.0091375,-0.00046993,0,0,0.05604,-0.024364,0,-0.0024436,0,0,0,0.030699,-0.00024036,0.0091375,-0.87036,0.013199,0.027478,6.6224e-07,0.82,0.15,0
0.04045,0.0083025,0.030702,-0.00023505,0.0091401,-0.00044482,0,0,0.056061,-0.024375,0,-0.0023131,0,0,0,0.030709,-0.00024145,0.0091401,-0.82356,0.013202,0.027487,6.6291e-07,0.83,0.15,0
0.041011,0.0083194,0.030712,-0.00023662,0.0091427,-0.00041951,0,0,0.056081,-0.024386,0,-0.0021815,0,0,0,0.030718,-0.00024231,0.0091427,-0.77643,0.013206,0.027496,6.6354e-07,0.84,0.15,0
0.041572,0.0083351,0.030722,-0.00023795,0.0091452,-0.00039403,0,0,0.056099,-0.024396,0,-0.0020489,0,0,0,0.030727,-0.00024298,0.0091452,-0.72902,0.01321,0.027505,6.6413e-07,0.85,0.15,0
0.042133,0.0083496,0.030731,-0.00023908,0.0091476,-0.00036838,0,0,0.056117,-0.024405,0,-0.0019156,0,0,0,0.030735,-0.00024348,0.0091476,-0.68136,0.013213,0.027513,6.6469e-07,0.86,0.15,0
0.042694,0.0083629,0.030739,-0.00024004,0.0091498,-0.00034259,0,0,0.056133,-0.024414,0,-0.0017815,0,0,0,0.030743,-0.00024384,0.0091498,-0.63349,0.013216,0.02752,6.6521e-07,0.87,0.15,0
0.043255,0.0083751,0.030747,-0.00024084,0.0091519,-0.00031667,0,0,0.056148,-0.024421,0,-0.0016467,0,0,0,0.030751,-0.00024408,0.0091519,-0.58542,0.013219,0.027527,6.6569e-07,0.88,0.15,0
0.043817,0.0083861,0.030755,-0.0002415,0.0091539,-0.00029065,0,0,0.056162,-0.024428,0,-0.0015114,0,0,0,0.030757,-0.00024424,0.0091539,-0.53717,0.013222,0.027533,6.6613e-07,0.89,0.15,0
0.044379,0.0083961,0.030761,-0.00024205,0.0091558,-0.00026452,0,0,0.056174,-0.024434,0,-0.0013755,0,0,0,0.030764,-0.00024432,0.0091558,-0.48878,0.013225,0.027539,6.6653e-07,0.9,0.15,0
0.04494,0.008405,0.030767,-0.00024251,0.0091575,-0.0002383,0,0,0.056186,-0.02444,0,-0.0012392,0,0,0,0.030769,-0.00024435,0.0091575,-0.44025,0.013227,0.027544,6.669e-07,0.91,0.15,0
0.045502,0.008413,0.030773,-0.00024288,0.009159,-0.00021201,0,0,0.056196,-0.024445,0,-0.0011024,0,0,0,0.030774,-0.00024434,0.009159,-0.39161,0.01323,0.027548,6.6723e-07,0.92,0.15,0
0.046064,0.0084199,0.030778,-0.00024318,0.0091603,-0.00018565,0,0,0.056205,-0.024449,0,-0.00096537,0,0,0,0.030779,-0.0002443,0.0091603,-0.34287,0.013232,0.027552,6.6752e-07,0.93,0.15,0
0.046626,0.0084259,0.030782,-0.00024342,0.0091615,-0.00015923,0,0,0.056213,-0.024453,0,-0.000828,0,0,0,0.030783,-0.00024425,0.0091615,-0.29404,0.013233,0.027556,6.6778e-07,0.94,0.15,0
0.047188,0.0084309,0.030785,-0.00024361,0.0091626,-0.00013277,0,0,0.05622,-0.024456,0,-0.00069038,0,0,0,0.030786,-0.00024419,0.0091626,-0.24514,0.013235,0.027558,6.6799e-07,0.95,0.15,0
0.047751,0.008435,0.030788,-0.00024376,0.0091634,-0.00010626,0,0,0.056225,-0.024459,0,-0.00055255,0,0,0,0.030789,-0.00024413,0.0091634,-0.19618,0.013236,0.027561,6.6817e-07,0.96,0.15,0
0.048313,0.0084381,0.030791,-0.00024386,0.0091641,-7.9722e-05,0,0,0.056229,-0.024461,0,-0.00041456,0,0,0,0.030791,-0.00024408,0.0091641,-0.14718,0.013237,0.027563,6.683e-07,0.97,0.15,0
0.048875,0.0084404,0.030792,-0.00024394,0.0091645,-5.3161e-05,0,0,0.056232,-0.024462,0,-0.00027644,0,0,0,0.030792,-0.00024404,0.0091645,-0.098136,0.013238,0.027564,6.684e-07,0.98,0.15,0
0.049438,0.0084417,0.030793,-0.00024398,0.0091648,-2.4426e-05,0,0,0.056234,-0.024463,0,-0.00012702,0,0,0,0.030793,-0.00024401,0.0091648,-0.04509,0.013238,0.027565,6.6846e-07,0.99,0.15,0
0.049719,0.0084422,0.030794,-0.00024399,0.0091649,-8.9771e-06,0,0,0.056235,-0.024463,0,-4.6681e-05,0,0,0,0.030794,-0.00024401,0.0091649,-0.016571,0.013238,0.027565,6.6848e-07,1,0.15,0
0.000212,0.0001658,0.028532,0.012085,0.012185,0.006359,0,0,0.042501,-0.00026073,0,0.033067,0,0,0,0.030704,0.0099118,0.012185,18.859,0.0176,0.019755,3.7834e-07,0,0.16,0
0.00042501,0.00032655,0.028552,0.011926,0.012143,0.0062932,0,0,0.042662,-0.00056588,0,0.032725,0,0,0,0.030667,0.0098102,0.012143,18.566,0.01754,0.019794,3.7975e-07,0.01,0.16,0
0.00085324,0.00063797,0.02862,0.011576,0.012059,0.0061122,0,0,0.04306,-0.001255,0,0.031783,0,0,0,0.030589,0.0096077,0.012059,17.829,0.017419,0.01987,3.8232e-07,0.02,0.16,0
0.0012862,0.00092907,0.028716,0.011162,0.011963,0.0058784,0,0,0.043557,-0.0020834,0,0.030568,0,0,0,0.030506,0.0093718,0.011963,16.912,0.01728,0.019965,3.8565e-07,0.03,0.16,0
0.0017244,0.0011995,0.028804,0.010686,0.011847,0.0056354,0,0,0.044088,-0.0030185,0,0.029304,0,0,0,0.030417,0.0090725,0.011847,15.95,0.017112,0.020102,3.9056e-07,0.04,0.16,0
0.002168,0.0014486,0.028875,0.010159,0.01171,0.0053808,0,0,0.044628,-0.0040337,0,0.02798,0,0,0,0.030315,0.0087182,0.01171,14.957,0.016914,0.020268,3.9641e-07,0.05,0.16,0
0.0026169,0.0016757,0.028921,0.0095874,0.011553,0.0051155,0,0,0.045158,-0.0051094,0,0.026601,0,0,0,0.030195,0.0083137,0.011553,13.952,0.016687,0.020456,4.0273e-07,0.06,0.16,0
0.0030711,0.0018802,0.028936,0.0089756,0.011373,0.0048433,0,0,0.045662,-0.0062342,0,0.025185,0,0,0,0.030052,0.007859,0.011373,12.952,0.016428,0.020662,4.0927e-07,0.07,0.16,0
0.0035302,0.0020614,0.028912,0.0083211,0.01117,0.0045726,0,0,0.046129,-0.007407,0,0.023777,0,0,0,0.029885,0.0073482,0.01117,11.982,0.016134,0.02089,4.1598e-07,0.08,0.16,0
0.0039937,0.0022194,0.028839,0.0076165,0.010937,0.0043169,0,0,0.046547,-0.0086326,0,0.022448,0,0,0,0.029686,0.0067694,0.010937,11.076,0.015797,0.021145,4.2277e-07,0.09,0.16,0
0.0044611,0.0023544,0.028705,0.006861,0.01067,0.004095,0,0,0.046891,-0.0099028,0,0.021294,0,0,0,0.029449,0.0061165,0.01067,10.281,0.015412,0.021423,4.2927e-07,0.1,0.16,0
0.0049315,0.0024678,0.028487,0.0060551,0.010363,0.0039201,0,0,0.047124,-0.0112,0,0.020384,0,0,0,0.029154,0.0053882,0.010363,9.633,0.014968,0.021712,4.3422e-07,0.11,0.16,0
0.0054036,0.0025612,0.02821,0.0051967,0.010022,0.003829,0,0,0.047289,-0.012546,0,0.019911,0,0,0,0.028833,0.0045743,0.010022,9.1968,0.014476,0.022047,4.392e-07,0.12,0.16,0
0.0058773,0.0026397,0.027971,0.0043972,0.0097104,0.0038096,0,0,0.047477,-0.013814,0,0.01981,0,0,0,0.028574,0.0037939,0.0097104,8.947,0.014026,0.022417,4.4594e-07,0.13,0.16,0
0.0063531,0.0027119,0.028143,0.0039417,0.0096253,0.0037937,0,0,0.047046,-0.014436,0,0.019527,0,0,0,0.028734,0.0033504,0.0096253,8.7583,0.013903,0.022901,4.7464e-07,0.14,0.16,0
0.0068215,0.0027816,0.028736,0.003693,0.0097286,0.0036902,0,0,0.044187,-0.013941,0,0.018063,0,0,0,0.029302,0.0031266,0.0097286,8.4223,0.014052,0.023579,5.3765e-07,0.15,0.16,0
0.0072489,0.0028482,0.029097,0.0033664,0.009739,0.0032803,0,0,0.039225,-0.012816,0,0.014846,0,0,0,0.029575,0.0028882,0.009739,7.5662,0.014067,0.024008,5.9045e-07,0.16,0.16,0
0.0076203,0.002916,0.029399,0.0032584,0.0097972,0.0025249,0,0,0.035946,-0.012053,0,0.011016,0,0,0,0.029726,0.0029317,0.0097972,6.0754,0.014151,0.024109,6.2121e-07,0.17,0.16,0
0.0079733,0.0029915,0.02987,0.0032181,0.0099266,0.001618,0,0,0.034886,-0.011762,0,0.0073058,0,0,0,0.030051,0.0030376,0.0099266,4.1167,0.014338,0.024315,6.4312e-07,0.18,0.16,0
0.0083176,0.0030707,0.030555,0.0029218,0.010043,0.00084047,0,0,0.033027,-0.011358,0,0.0039649,0,0,0,0.030642,0.0028356,0.010043,2.2944,0.014507,0.024996,6.6629e-07,0.19,0.16,0
0.008633,0.0031436,0.031772,0.002709,0.010344,0.00039449,0,0,0.031026,-0.011005,0,0.0018403,0,0,0,0.031811,0.0026696,0.010344,1.1697,0.014942,0.026164,7.2352e-07,0.2,0.16,0
0.0089377,0.0032083,0.032868,0.0026505,0.010656,9.1842e-05,0,0,0.030834,-0.011114,0,0.00059241,0,0,0,0.032884,0.0026345,0.010656,0.40135,0.015391,0.027143,7.9029e-07,0.21,0.16,0
0.0092497,0.0032681,0.03346,0.0025396,0.0108,-0.00023129,0,0,0.031465,-0.011457,0,-0.0004971,0,0,0,0.033468,0.002532,0.0108,-0.33108,0.0156,0.027742,8.3755e-07,0.22,0.16,0
0.009567,0.0033248,0.033815,0.0023626,0.010853,-0.00055032,0,0,0.031887,-0.011776,0,-0.0015242,0,0,0,0.033828,0.0023503,0.010853,-0.99699,0.015677,0.028204,8.7162e-07,0.23,0.16,0
0.0098875,0.003379,0.033973,0.0021512,0.010837,-0.00086479,0,0,0.03213,-0.012051,0,-0.0025113,0,0,0,0.033999,0.0021249,0.010837,-1.6208,0.015654,0.028534,8.926e-07,0.24,0.16,0
0.01021,0.0034315,0.033969,0.001917,0.010766,-0.0011661,0,0,0.032225,-0.012285,0,-0.0034535,0,0,0,0.034016,0.0018696,0.010766,-2.2069,0.01555,0.02875,9.0189e-07,0.25,0.16,0
0.010532,0.003483,0.033798,0.0016544,0.010636,-0.0014484,0,0,0.03217,-0.012483,0,-0.0043489,0,0,0,0.033872,0.0015799,0.010636,-2.7601,0.015363,0.028851,8.9891e-07,0.26,0.16,0
0.010853,0.003534,0.033415,0.0013373,0.010426,-0.0017018,0,0,0.031933,-0.012652,0,-0.00519,0,0,0,0.033523,0.0012296,0.010426,-3.2806,0.015059,0.028818,8.8082e-07,0.27,0.16,0
0.011171,0.0035853,0.032781,0.00091658,0.010109,-0.0019235,0,0,0.031493,-0.012833,0,-0.0059877,0,0,0,0.032929,0.00076854,0.010109,-3.7737,0.014602,0.028657,8.4693e-07,0.28,0.16,0
0.011483,0.0036368,0.03163,0.00038849,0.0096055,-0.0020763,0,0,0.03193,-0.013396,0,-0.0069738,0,0,0,0.031817,0.00020107,0.0096055,-4.212,0.013875,0.028122,7.8972e-07,0.29,0.16,0
0.011809,0.0036847,0.030379,5.361e-05,0.0091299,-0.0023163,0,0,0.034274,-0.014657,0,-0.0089698,0,0,0,0.030624,-0.00019097,0.0091299,-4.8734,0.013188,0.027376,7.4326e-07,0.3,0.16,0
0.012167,0.003731,0.029751,-0.00014656,0.0088812,-0.0028449,0,0,0.036579,-0.016092,0,-0.011952,0,0,0,0.030104,-0.00049948,0.0088812,-5.9838,0.012828,0.027165,7.3948e-07,0.31,0.16,0
0.01254,0.0037922,0.02936,-0.00079781,0.0085687,-0.0034601,0,0,0.038202,-0.017542,0,-0.014737,0,0,0,0.029832,-0.0012697,0.0085687,-6.9998,0.012377,0.027545,7.3624e-07,0.32,0.16,0
0.012937,0.0038791,0.029076,-0.0014473,0.0082887,-0.0038707,0,0,0.042188,-0.019785,0,-0.017247,0,0,0,0.029613,-0.0019842,0.0082887,-7.4754,0.011972,0.027921,7.1191e-07,0.33,0.16,0
0.013399,0.0039866,0.028735,-0.0016265,0.0081326,-0.0039049,0,0,0.047957,-0.022657,0,-0.01894,0,0,0,0.029255,-0.0021463,0.0081326,-7.3817,0.011747,0.02773,6.548e-07,0.34,0.16,0
0.01391,0.0041103,0.028197,-0.0018529,0.0079031,-0.0036122,0,0,0.051588,-0.024816,0,-0.018552,0,0,0,0.028635,-0.0022914,0.0079031,-6.7957,0.011416,0.027297,5.8704e-07,0.35,0.16,0
0.014434,0.0042521,0.028076,-0.0019681,0.0078323,-0.0031766,0,0,0.052633,-0.025481,0,-0.016518,0,0,0,0.028415,-0.002307,0.0078323,-5.9559,0.011313,0.027114,5.6286e-07,0.36,0.16,0
0.014962,0.0044108,0.02837,-0.0016479,0.0080168,-0.0027015,0,0,0.05292,-0.025128,0,-0.014048,0,0,0,0.028617,-0.0018944,0.0080168,-5.0865,0.01158,0.02696,5.6737e-07,0.37,0.16,0
0.015493,0.0045778,0.028708,-0.0012083,0.0082499,-0.002311,0,0,0.053191,-0.024591,0,-0.012017,0,0,0,0.028888,-0.0013882,0.0082499,-4.3825,0.011916,0.026791,5.7447e-07,0.38,0.16,0
0.016026,0.0047459,0.028992,-0.00083589,0.0084469,-0.0020326,0,0,0.053418,-0.024135,0,-0.01057,0,0,0,0.029132,-0.00097519,0.0084469,-3.8741,0.012201,0.026675,5.8117e-07,0.39,0.16,0
0.016561,0.0049125,0.029211,-0.0005197,0.0086074,-0.001825,0,0,0.053569,-0.02373,0,-0.0094901,0,0,0,0.029323,-0.00063207,0.0086074,-3.4954,0.012433,0.026569,5.8577e-07,0.4,0.16,0
0.017097,0.0050754,0.029385,-0.00026986,0.0087347,-0.0016771,0,0,0.053692,-0.023412,0,-0.0087212,0,0,0,0.02948,-0.00036486,0.0087347,-3.2237,0.012617,0.026495,5.8965e-07,0.41,0.16,0
0.017635,0.0052332,0.029531,-8.7407e-05,0.0088332,-0.0015706,0,0,0.053815,-0.023193,0,-0.0081671,0,0,0,0.029615,-0.00017076,0.0088332,-3.0247,0.012759,0.026459,5.9358e-07,0.42,0.16,0
0.018174,0.005385,0.029659,3.9805e-05,0.0089097,-0.0014905,0,0,0.053949,-0.023062,0,-0.0077508,0,0,0,0.029734,-3.5235e-05,0.0089097,-2.8719,0.01287,0.026456,5.9784e-07,0.43,0.16,0
0.018714,0.0055306,0.029773,0.00012376,0.0089691,-0.0014274,0,0,0.054091,-0.022998,0,-0.0074224,0,0,0,0.029842,5.5039e-05,0.0089691,-2.7485,0.012955,0.02648,6.0237e-07,0.44,0.16,0
0.019256,0.0056701,0.029875,0.00017381,0.0090148,-0.0013753,0,0,0.054238,-0.022987,0,-0.0071517,0,0,0,0.029939,0.00011013,0.0090148,-2.6444,0.013021,0.026523,6.0704e-07,0.45,0.16,0
0.019799,0.0058034,0.029967,0.00019737,0.0090494,-0.0013303,0,0,0.054387,-0.023015,0,-0.0069176,0,0,0,0.030027,0.00013793,0.0090494,-2.5526,0.013071,0.026578,6.1175e-07,0.46,0.16,0
0.020343,0.0059309,0.03005,0.0002013,0.0090753,-0.0012894,0,0,0.054534,-0.023072,0,-0.0067048,0,0,0,0.030106,0.00014562,0.0090753,-2.4682,0.013109,0.026642,6.1638e-07,0.47,0.16,0
0.020889,0.0060527,0.030123,0.00019178,0.0090946,-0.0012508,0,0,0.054675,-0.023147,0,-0.0065043,0,0,0,0.030176,0.00013952,0.0090946,-2.3882,0.013137,0.026709,6.2083e-07,0.48,0.16,0
0.021437,0.0061693,0.030189,0.00017381,0.0091087,-0.0012139,0,0,0.054808,-0.023231,0,-0.0063123,0,0,0,0.030238,0.00012474,0.0091087,-2.3117,0.013157,0.026776,6.2499e-07,0.49,0.16,0
0.021985,0.0062808,0.030246,0.00015114,0.0091191,-0.0011785,0,0,0.05493,-0.023317,0,-0.0061283,0,0,0,0.030292,0.00010501,0.0091191,-2.2388,0.013172,0.02684,6.2879e-07,0.5,0.16,0
0.022535,0.0063875,0.030296,0.00012634,0.0091266,-0.0011449,0,0,0.055039,-0.023401,0,-0.0059536,0,0,0,0.030339,8.2915e-05,0.0091266,-2.1699,0.013183,0.0269,6.3221e-07,0.51,0.16,0
0.023086,0.0064896,0.030339,0.00010107,0.0091319,-0.0011134,0,0,0.055137,-0.02348,0,-0.0057897,0,0,0,0.03038,6.0098e-05,0.0091319,-2.1057,0.013191,0.026954,6.3526e-07,0.52,0.16,0
0.023638,0.0065874,0.030376,7.6296e-05,0.0091357,-0.0010842,0,0,0.055225,-0.023554,0,-0.0056379,0,0,0,0.030415,3.7526e-05,0.0091357,-2.0465,0.013196,0.027003,6.3796e-07,0.53,0.16,0
0.024191,0.0066809,0.030408,5.2515e-05,0.0091383,-0.0010574,0,0,0.055302,-0.023623,0,-0.0054984,0,0,0,0.030445,1.5709e-05,0.0091383,-1.9924,0.0132,0.027048,6.4037e-07,0.54,0.16,0
0.024744,0.0067703,0.030437,2.9923e-05,0.00914,-0.0010329,0,0,0.055372,-0.023686,0,-0.0053709,0,0,0,0.030472,-5.1367e-06,0.00914,-1.9431,0.013202,0.027088,6.4252e-07,0.55,0.16,0
0.025298,0.0068558,0.030462,8.542e-06,0.0091412,-0.0010105,0,0,0.055435,-0.023745,0,-0.0052546,0,0,0,0.030496,-2.4963e-05,0.0091412,-1.8983,0.013204,0.027125,6.4446e-07,0.56,0.16,0
0.025853,0.0069373,0.030485,-1.1693e-05,0.009142,-0.00098995,0,0,0.055492,-0.0238,0,-0.0051477,0,0,0,0.030517,-4.3804e-05,0.009142,-1.8572,0.013205,0.027159,6.4625e-07,0.57,0.16,0
0.026408,0.0070151,0.030506,-3.0879e-05,0.0091425,-0.00097093,0,0,0.055545,-0.023851,0,-0.0050488,0,0,0,0.030537,-6.1727e-05,0.0091425,-1.8192,0.013206,0.027191,6.4789e-07,0.58,0.16,0
0.026964,0.0070893,0.030525,-4.9112e-05,0.0091429,-0.00095306,0,0,0.055595,-0.023899,0,-0.0049559,0,0,0,0.030555,-7.88e-05,0.0091429,-1.7836,0.013206,0.027221,6.4944e-07,0.59,0.16,0
0.02752,0.0071599,0.030544,-6.6471e-05,0.0091432,-0.00093602,0,0,0.055642,-0.023945,0,-0.0048673,0,0,0,0.030572,-9.5073e-05,0.0091432,-1.7498,0.013207,0.027249,6.5091e-07,0.6,0.16,0
0.028077,0.0072271,0.030561,-8.3011e-05,0.0091435,-0.00091946,0,0,0.055686,-0.023989,0,-0.0047812,0,0,0,0.030589,-0.00011058,0.0091435,-1.717,0.013207,0.027276,6.523e-07,0.61,0.16,0
0.028634,0.0072909,0.030578,-9.8766e-05,0.0091438,-0.00090312,0,0,0.055729,-0.024031,0,-0.0046962,0,0,0,0.030605,-0.00012534,0.0091438,-1.6848,0.013208,0.027302,6.5364e-07,0.62,0.16,0
0.029191,0.0073516,0.030594,-0.00011375,0.0091442,-0.00088675,0,0,0.05577,-0.024071,0,-0.0046111,0,0,0,0.03062,-0.00013934,0.0091442,-1.6526,0.013208,0.027327,6.5494e-07,0.63,0.16,0
0.029749,0.0074092,0.03061,-0.00012796,0.0091447,-0.00087015,0,0,0.05581,-0.024109,0,-0.0045248,0,0,0,0.030635,-0.00015258,0.0091447,-1.6202,0.013209,0.027351,6.5618e-07,0.64,0.16,0
0.030307,0.0074638,0.030626,-0.00014139,0.0091452,-0.00085317,0,0,0.055849,-0.024145,0,-0.0044365,0,0,0,0.030649,-0.00016504,0.0091452,-1.5871,0.01321,0.027374,6.5739e-07,0.65,0.16,0
0.030866,0.0075155,0.030641,-0.00015404,0.009146,-0.00083569,0,0,0.055886,-0.02418,0,-0.0043456,0,0,0,0.030663,-0.00017671,0.009146,-1.5533,0.013211,0.027395,6.5855e-07,0.66,0.16,0
0.031425,0.0075645,0.030655,-0.00016589,0.0091468,-0.00081763,0,0,0.055922,-0.024213,0,-0.0042517,0,0,0,0.030677,-0.00018757,0.0091468,-1.5185,0.013212,0.027416,6.5967e-07,0.67,0.16,0
0.031984,0.0076109,0.030669,-0.00017693,0.0091477,-0.00079895,0,0,0.055956,-0.024244,0,-0.0041545,0,0,0,0.03069,-0.00019762,0.0091477,-1.4826,0.013213,0.027436,6.6075e-07,0.68,0.16,0
0.032544,0.0076547,0.030683,-0.00018718,0.0091488,-0.00077962,0,0,0.05599,-0.024274,0,-0.004054,0,0,0,0.030703,-0.00020686,0.0091488,-1.4457,0.013215,0.027455,6.6179e-07,0.69,0.16,0
0.033104,0.0076962,0.030697,-0.00019663,0.0091501,-0.00075963,0,0,0.056022,-0.024301,0,-0.0039501,0,0,0,0.030715,-0.0002153,0.0091501,-1.4077,0.013217,0.027473,6.6279e-07,0.7,0.16,0
0.033665,0.0077353,0.03071,-0.00020529,0.0091514,-0.00073901,0,0,0.056052,-0.024327,0,-0.0038429,0,0,0,0.030728,-0.00022296,0.0091514,-1.3685,0.013219,0.02749,6.6374e-07,0.71,0.16,0
0.034225,0.0077723,0.030723,-0.0002132,0.0091528,-0.00071778,0,0,0.056082,-0.024352,0,-0.0037324,0,0,0,0.030739,-0.00022986,0.0091528,-1.3284,0.013221,0.027505,6.6465e-07,0.72,0.16,0
0.034786,0.0078071,0.030735,-0.00022038,0.0091544,-0.00069596,0,0,0.05611,-0.024374,0,-0.003619,0,0,0,0.030751,-0.00023603,0.0091544,-1.2873,0.013223,0.02752,6.6552e-07,0.73,0.16,0
0.035347,0.0078399,0.030747,-0.00022686,0.009156,-0.0006736,0,0,0.056136,-0.024396,0,-0.0035027,0,0,0,0.030762,-0.00024151,0.009156,-1.2452,0.013225,0.027535,6.6636e-07,0.74,0.16,0
0.035909,0.0078708,0.030758,-0.00023267,0.0091577,-0.00065072,0,0,0.056162,-0.024415,0,-0.0033838,0,0,0,0.030772,-0.00024634,0.0091577,-1.2023,0.013228,0.027548,6.6715e-07,0.75,0.16,0
0.036471,0.0078999,0.03077,-0.00023787,0.0091595,-0.00062739,0,0,0.056186,-0.024433,0,-0.0032624,0,0,0,0.030782,-0.00025057,0.0091595,-1.1586,0.01323,0.02756,6.679e-07,0.76,0.16,0
0.037033,0.0079272,0.03078,-0.00024248,0.0091614,-0.00060362,0,0,0.056209,-0.02445,0,-0.0031388,0,0,0,0.030792,-0.00025423,0.0091614,-1.1142,0.013233,0.027572,6.6862e-07,0.77,0.16,0
0.037595,0.0079528,0.030791,-0.00024656,0.0091632,-0.00057947,0,0,0.056231,-0.024465,0,-0.0030133,0,0,0,0.030802,-0.00025739,0.0091632,-1.0692,0.013236,0.027583,6.693e-07,0.78,0.16,0
0.038157,0.0079768,0.030801,-0.00025015,0.0091651,-0.00055497,0,0,0.056252,-0.02448,0,-0.0028859,0,0,0,0.030811,-0.00026008,0.0091651,-1.0236,0.013239,0.027593,6.6995e-07,0.79,0.16,0
0.03872,0.0079992,0.03081,-0.00025329,0.0091671,-0.00053016,0,0,0.056272,-0.024493,0,-0.0027568,0,0,0,0.030819,-0.00026235,0.0091671,-0.97746,0.013241,0.027602,6.7057e-07,0.8,0.16,0
0.039283,0.0080202,0.030819,-0.00025603,0.009169,-0.00050506,0,0,0.056291,-0.024505,0,-0.0026263,0,0,0,0.030828,-0.00026425,0.009169,-0.93085,0.013244,0.027611,6.7115e-07,0.81,0.16,0
0.039846,0.0080398,0.030828,-0.0002584,0.0091709,-0.0004797,0,0,0.056309,-0.024516,0,-0.0024944,0,0,0,0.030835,-0.00026582,0.0091709,-0.88383,0.013247,0.02762,6.717e-07,0.82,0.16,0
0.040409,0.0080579,0.030836,-0.00026045,0.0091728,-0.00045411,0,0,0.056325,-0.024526,0,-0.0023614,0,0,0,0.030843,-0.0002671,0.0091728,-0.83644,0.01325,0.027627,6.7222e-07,0.83,0.16,0
0.040972,0.0080748,0.030844,-0.00026222,0.0091746,-0.00042832,0,0,0.056341,-0.024536,0,-0.0022272,0,0,0,0.03085,-0.00026812,0.0091746,-0.7887,0.013252,0.027635,6.7271e-07,0.84,0.16,0
0.041536,0.0080904,0.030852,-0.00026373,0.0091764,-0.00040233,0,0,0.056356,-0.024544,0,-0.0020921,0,0,0,0.030857,-0.00026894,0.0091764,-0.74067,0.013255,0.027641,6.7317e-07,0.85,0.16,0
0.042099,0.0081048,0.030859,-0.00026501,0.0091781,-0.00037619,0,0,0.05637,-0.024552,0,-0.0019562,0,0,0,0.030863,-0.00026957,0.0091781,-0.69237,0.013257,0.027648,6.7361e-07,0.86,0.16,0
0.042663,0.008118,0.030865,-0.0002661,0.0091798,-0.00034989,0,0,0.056383,-0.024559,0,-0.0018194,0,0,0,0.030869,-0.00027005,0.0091798,-0.64383,0.01326,0.027653,6.7401e-07,0.87,0.16,0
0.043227,0.0081301,0.030872,-0.00026703,0.0091814,-0.00032346,0,0,0.056395,-0.024566,0,-0.001682,0,0,0,0.030875,-0.0002704,0.0091814,-0.59506,0.013262,0.027659,6.7438e-07,0.88,0.16,0
0.043791,0.0081411,0.030877,-0.0002678,0.0091829,-0.0002969,0,0,0.056406,-0.024572,0,-0.0015439,0,0,0,0.03088,-0.00027064,0.0091829,-0.54611,0.013264,0.027663,6.7473e-07,0.89,0.16,0
0.044355,0.008151,0.030883,-0.00026845,0.0091843,-0.00027024,0,0,0.056416,-0.024577,0,-0.0014052,0,0,0,0.030885,-0.00027081,0.0091843,-0.49699,0.013266,0.027668,6.7504e-07,0.9,0.16,0
0.044919,0.0081599,0.030887,-0.00026899,0.0091855,-0.00024348,0,0,0.056425,-0.024582,0,-0.0012661,0,0,0,0.030889,-0.00027091,0.0091855,-0.44771,0.013268,0.027672,6.7533e-07,0.91,0.16,0
0.045484,0.0081678,0.030892,-0.00026944,0.0091867,-0.00021664,0,0,0.056433,-0.024586,0,-0.0011265,0,0,0,0.030893,-0.00027096,0.0091867,-0.39829,0.01327,0.027675,6.7559e-07,0.92,0.16,0
0.046048,0.0081747,0.030896,-0.00026981,0.0091877,-0.00018972,0,0,0.05644,-0.02459,0,-0.00098653,0,0,0,0.030897,-0.00027097,0.0091877,-0.34876,0.013271,0.027678,6.7582e-07,0.93,0.16,0
0.046612,0.0081806,0.030899,-0.0002701,0.0091887,-0.00016273,0,0,0.056447,-0.024593,0,-0.00084622,0,0,0,0.0309,-0.00027096,0.0091887,-0.29912,0.013272,0.027681,6.7601e-07,0.94,0.16,0
0.047177,0.0081856,0.030902,-0.00027034,0.0091894,-0.0001357,0,0,0.056452,-0.024595,0,-0.00070562,0,0,0,0.030902,-0.00027094,0.0091894,-0.2494,0.013274,0.027683,6.7618e-07,0.95,0.16,0
0.047742,0.0081897,0.030904,-0.00027052,0.0091901,-0.00010861,0,0,0.056457,-0.024598,0,-0.00056478,0,0,0,0.030905,-0.00027091,0.0091901,-0.19961,0.013275,0.027685,6.7632e-07,0.96,0.16,0
0.048306,0.0081928,0.030906,-0.00027066,0.0091906,-8.149e-05,0,0,0.05646,-0.024599,0,-0.00042375,0,0,0,0.030906,-0.00027089,0.0091906,-0.14975,0.013275,0.027687,6.7643e-07,0.97,0.16,0
0.048871,0.0081951,0.030907,-0.00027076,0.0091909,-5.4342e-05,0,0,0.056462,-0.0246,0,-0.00028258,0,0,0,0.030907,-0.00027086,0.0091909,-0.09986,0.013276,0.027688,6.7651e-07,0.98,0.16,0
0.049435,0.0081964,0.030908,-0.00027081,0.0091912,-2.503e-05,0,0,0.056464,-0.024601,0,-0.00013015,0,0,0,0.030908,-0.00027085,0.0091912,-0.045994,0.013276,0.027688,6.7655e-07,0.99,0.16,0
0.049718,0.0081969,0.030908,-0.00027083,0.0091912,-9.2975e-06,0,0,0.056464,-0.024601,0,-4.8347e-05,0,0,0,0.030908,-0.00027084,0.0091912,-0.017084,0.013276,0.027688,6.7657e-07,1,0.16,0
0.00021637,0.00016314,0.029118,0.012327,0.012433,0.0062579,0,0,0.043381,-0.00027784,0,0.032541,0,0,0,0.031195,0.01025,0.012433,18.353,0.017959,0.019943,3.9102e-07,0,0.17,0
0.0004338,0.00032082,0.029139,0.012162,0.01239,0.0061909,0,0,0.043548,-0.00059462,0,0.032193,0,0,0,0.031159,0.010142,0.01239,18.056,0.017897,0.019989,3.9278e-07,0.01,0.17,0
0.00087096,0.00062533,0.029213,0.011807,0.012306,0.0060079,0,0,0.043958,-0.0012976,0,0.031241,0,0,0,0.031089,0.009931,0.012306,17.315,0.017775,0.020076,3.961e-07,0.02,0.17,0
0.001313,0.00090821,0.029316,0.011396,0.012214,0.0057766,0,0,0.044467,-0.0021253,0,0.030038,0,0,0,0.031021,0.0096921,0.012214,16.412,0.017642,0.020187,4.0041e-07,0.03,0.17,0
0.0017603,0.0011693,0.029415,0.010929,0.012103,0.0055443,0,0,0.045011,-0.003053,0,0.02883,0,0,0,0.030954,0.0093899,0.012103,15.487,0.017482,0.020344,4.0671e-07,0.04,0.17,0
0.0022132,0.0014084,0.029501,0.01041,0.011973,0.0053081,0,0,0.045571,-0.0040637,0,0.027602,0,0,0,0.030881,0.0090301,0.011973,14.549,0.017295,0.020539,4.1443e-07,0.05,0.17,0
0.0026717,0.0016248,0.029567,0.0098452,0.011824,0.0050684,0,0,0.046133,-0.0051439,0,0.026356,0,0,0,0.030797,0.0086154,0.011824,13.612,0.017079,0.020765,4.2317e-07,0.06,0.17,0
0.0031358,0.001818,0.029608,0.0092358,0.011653,0.0048283,0,0,0.046683,-0.0062852,0,0.025107,0,0,0,0.030698,0.0081462,0.011653,12.692,0.016832,0.021019,4.3271e-07,0.07,0.17,0
0.0036054,0.0019874,0.02962,0.0085747,0.011458,0.0045939,0,0,0.047219,-0.0074973,0,0.023888,0,0,0,0.030582,0.0076127,0.011458,11.804,0.016551,0.021309,4.4309e-07,0.08,0.17,0
0.0040802,0.0021327,0.029596,0.0078452,0.011232,0.0043821,0,0,0.047745,-0.0088063,0,0.022787,0,0,0,0.030448,0.0069932,0.011232,10.985,0.016224,0.02165,4.5484e-07,0.09,0.17,0
0.0045603,0.0022545,0.029511,0.0070269,0.010961,0.0042193,0,0,0.048229,-0.010229,0,0.02194,0,0,0,0.030278,0.0062596,0.010961,10.296,0.015833,0.022048,4.6763e-07,0.1,0.17,0
0.0050448,0.0023542,0.029354,0.0061359,0.010647,0.0041407,0,0,0.048638,-0.011729,0,0.021531,0,0,0,0.030071,0.0054187,0.010647,9.8178,0.015379,0.0225,4.8129e-07,0.11,0.17,0
0.005533,0.0024337,0.029493,0.0053274,0.010446,0.0041707,0,0,0.048373,-0.012958,0,0.021344,0,0,0,0.030197,0.0046228,0.010446,9.5617,0.015089,0.023219,5.2243e-07,0.12,0.17,0
0.0060161,0.0024998,0.029899,0.0047873,0.010406,0.0040598,0,0,0.047223,-0.013607,0,0.020266,0,0,0,0.030561,0.0041248,0.010406,9.1139,0.015031,0.023924,5.7997e-07,0.13,0.17,0
0.0064851,0.0025671,0.030354,0.0045278,0.010464,0.0035623,0,0,0.045054,-0.013486,0,0.017409,0,0,0,0.030893,0.0039888,0.010464,7.9999,0.015115,0.024324,6.2468e-07,0.14,0.17,0
0.0069256,0.0026451,0.030757,0.0041479,0.010472,0.0028263,0,0,0.040411,-0.0125,0,0.013082,0,0,0,0.031146,0.0037592,0.010472,6.3825,0.015126,0.024726,6.6087e-07,0.15,0.17,0
0.0073032,0.0027271,0.031269,0.0036662,0.01048,0.0020563,0,0,0.034664,-0.011262,0,0.0085228,0,0,0,0.031519,0.0034161,0.01048,4.6775,0.015138,0.025322,6.9124e-07,0.16,0.17,0
0.0076246,0.0028048,0.032571,0.0036686,0.010872,0.0013751,0,0,0.031609,-0.010534,0,0.0050627,0,0,0,0.032705,0.0035342,0.010872,3.1174,0.015704,0.026284,7.5032e-07,0.17,0.17,0
0.0079359,0.0028815,0.033687,0.0037379,0.011227,0.00071566,0,0,0.031393,-0.010511,0,0.0026132,0,0,0,0.033744,0.0036806,0.011227,1.6539,0.016217,0.027092,8.0838e-07,0.18,0.17,0
0.0082509,0.0029604,0.034182,0.0034203,0.011281,0.00012926,0,0,0.031452,-0.010773,0,0.00070522,0,0,0,0.034199,0.0034029,0.011281,0.41745,0.016294,0.027711,8.3837e-07,0.19,0.17,0
0.0085618,0.0030342,0.034868,0.0031348,0.011401,-0.00019164,0,0,0.031072,-0.010924,0,-0.00040853,0,0,0,0.034873,0.0031291,0.011401,-0.28722,0.016468,0.028523,8.7559e-07,0.2,0.17,0
0.0088707,0.0030977,0.035363,0.0029991,0.011509,-0.00037702,0,0,0.031011,-0.011062,0,-0.00098024,0,0,0,0.03537,0.0029925,0.011509,-0.6617,0.016624,0.02907,9.0697e-07,0.21,0.17,0
0.009182,0.0031544,0.03557,0.0028441,0.011524,-0.0005548,0,0,0.031259,-0.011284,0,-0.0014425,0,0,0,0.035581,0.0028332,0.011524,-0.9696,0.016646,0.029383,9.2895e-07,0.22,0.17,0
0.0094959,0.0032081,0.035745,0.0026424,0.011516,-0.00072995,0,0,0.031497,-0.011536,0,-0.0018979,0,0,0,0.035762,0.0026254,0.011516,-1.2622,0.016634,0.029706,9.5101e-07,0.23,0.17,0
0.0098119,0.0032598,0.03583,0.0024142,0.011473,-0.00091489,0,0,0.031664,-0.011777,0,-0.0023787,0,0,0,0.035856,0.0023886,0.011473,-1.5663,0.016572,0.029976,9.6714e-07,0.24,0.17,0
0.010129,0.0033102,0.035806,0.0021616,0.01139,-0.0010909,0,0,0.031741,-0.011997,0,-0.0028364,0,0,0,0.035842,0.0021258,0.01139,-1.8537,0.016453,0.030171,9.7517e-07,0.25,0.17,0
0.010447,0.0033598,0.035671,0.0018787,0.011265,-0.0012379,0,0,0.031727,-0.012202,0,-0.0032186,0,0,0,0.035717,0.0018326,0.011265,-2.0933,0.016271,0.03029,9.7468e-07,0.26,0.17,0
0.010764,0.0034093,0.035438,0.0015499,0.011096,-0.0013354,0,0,0.031644,-0.01241,0,-0.003472,0,0,0,0.035492,0.0014959,0.011096,-2.2522,0.016028,0.030357,9.6724e-07,0.27,0.17,0
0.01108,0.0034588,0.035169,0.0011312,0.01089,-0.0014007,0,0,0.031562,-0.012686,0,-0.0036417,0,0,0,0.035229,0.0010711,0.01089,-2.3566,0.01573,0.03046,9.5976e-07,0.28,0.17,0
0.011395,0.0035055,0.0346,0.0006364,0.010571,-0.0014465,0,0,0.03182,-0.013147,0,-0.0039494,0,0,0,0.034667,0.00056875,0.010571,-2.4957,0.015269,0.03036,9.4223e-07,0.29,0.17,0
0.011714,0.0035449,0.033862,0.00033623,0.010259,-0.0015939,0,0,0.032421,-0.013653,0,-0.0048186,0,0,0,0.033956,0.00024164,0.010259,-2.8949,0.014819,0.02999,9.2032e-07,0.3,0.17,0
0.01204,0.0035835,0.033378,0.00010811,0.010046,-0.0019627,0,0,0.032626,-0.014037,0,-0.0062591,0,0,0,0.033534,-4.7756e-05,0.010046,-3.6297,0.014511,0.029848,9.1009e-07,0.31,0.17,0
0.012365,0.0036329,0.032293,-0.00063869,0.0094964,-0.0023591,0,0,0.033262,-0.01497,0,-0.0080344,0,0,0,0.032523,-0.00086813,0.0094964,-4.4065,0.013717,0.029609,8.6643e-07,0.32,0.17,0
0.012706,0.0036928,0.031014,-0.0013681,0.0088938,-0.0027276,0,0,0.036976,-0.01715,0,-0.0107,0,0,0,0.031315,-0.0016686,0.0088938,-5.1365,0.012847,0.029176,8.17e-07,0.33,0.17,0
0.013111,0.0037633,0.030585,-0.0014688,0.0087348,-0.0031263,0,0,0.043634,-0.020397,0,-0.01412,0,0,0,0.030949,-0.0018325,0.0087348,-5.8271,0.012617,0.028984,8.0121e-07,0.34,0.17,0
0.013589,0.0038587,0.030307,-0.0017414,0.0085697,-0.003434,0,0,0.049314,-0.023607,0,-0.016744,0,0,0,0.030708,-0.0021427,0.0085697,-6.2725,0.012378,0.029025,7.77e-07,0.35,0.17,0
0.014106,0.0039911,0.029926,-0.002212,0.0083142,-0.0034623,0,0,0.052384,-0.025589,0,-0.017305,0,0,0,0.030312,-0.0025977,0.0083142,-6.1909,0.012009,0.029039,7.3255e-07,0.36,0.17,0
0.014645,0.0041532,0.029581,-0.0021013,0.0082439,-0.0030918,0,0,0.054205,-0.026247,0,-0.015792,0,0,0,0.029887,-0.0024077,0.0082439,-5.53,0.011908,0.028504,6.7056e-07,0.37,0.17,0
0.015195,0.0043262,0.029522,-0.0016001,0.0083764,-0.0025944,0,0,0.054977,-0.025939,0,-0.013491,0,0,0,0.02974,-0.0018181,0.0083764,-4.7215,0.012099,0.027895,6.3521e-07,0.38,0.17,0
0.015745,0.0044998,0.02975,-0.0011108,0.0085918,-0.0022277,0,0,0.055012,-0.025227,0,-0.011584,0,0,0,0.029912,-0.0012722,0.0085918,-4.1021,0.01241,0.027607,6.3485e-07,0.39,0.17,0
0.016295,0.0046712,0.029913,-0.00070018,0.0087637,-0.001974,0,0,0.054987,-0.024606,0,-0.010265,0,0,0,0.03004,-0.0008276,0.0087637,-3.6712,0.012659,0.027363,6.3374e-07,0.4,0.17,0
0.016845,0.0048379,0.030027,-0.00039524,0.0088894,-0.0018022,0,0,0.054957,-0.02414,0,-0.0093715,0,0,0,0.030133,-0.00050196,0.0088894,-3.3765,0.01284,0.027185,6.326e-07,0.41,0.17,0
0.017394,0.0049983,0.030122,-0.00018151,0.0089822,-0.0016809,0,0,0.054964,-0.023826,0,-0.0087406,0,0,0,0.030215,-0.00027466,0.0089822,-3.1638,0.012974,0.027076,6.3273e-07,0.42,0.17,0
0.017944,0.0051518,0.030207,-3.4069e-05,0.0090518,-0.0015883,0,0,0.055003,-0.023623,0,-0.0082591,0,0,0,0.03029,-0.0001174,0.0090518,-2.9972,0.013075,0.027016,6.3389e-07,0.43,0.17,0
0.018494,0.0052983,0.030283,6.5106e-05,0.0091044,-0.001515,0,0,0.055064,-0.023502,0,-0.0078782,0,0,0,0.030359,-1.0762e-05,0.0091044,-2.8623,0.013151,0.026992,6.3577e-07,0.44,0.17,0
0.019045,0.005438,0.030351,0.00012468,0.0091428,-0.0014551,0,0,0.055142,-0.023447,0,-0.0075663,0,0,0,0.030421,5.4725e-05,0.0091428,-2.749,0.013206,0.026995,6.3817e-07,0.45,0.17,0
0.019597,0.0055712,0.030414,0.00015301,0.00917,-0.001403,0,0,0.055233,-0.023444,0,-0.0072954,0,0,0,0.030478,8.8043e-05,0.00917,-2.6483,0.013245,0.02702,6.4098e-07,0.46,0.17,0
0.02015,0.0056982,0.03047,0.00015913,0.0091887,-0.0013548,0,0,0.055331,-0.023477,0,-0.0070452,0,0,0,0.03053,9.8634e-05,0.0091887,-2.5538,0.013273,0.027057,6.44e-07,0.47,0.17,0
0.020704,0.0058194,0.03052,0.00015092,0.0092014,-0.0013088,0,0,0.05543,-0.023531,0,-0.0068056,0,0,0,0.030577,9.4567e-05,0.0092014,-2.4628,0.013291,0.027102,6.47e-07,0.48,0.17,0
0.021258,0.0059352,0.030565,0.00013435,0.0092097,-0.0012643,0,0,0.055523,-0.023596,0,-0.0065744,0,0,0,0.030617,8.1868e-05,0.0092097,-2.3748,0.013303,0.027148,6.4983e-07,0.49,0.17,0
0.021814,0.0060459,0.030602,0.00011355,0.0092147,-0.0012218,0,0,0.055607,-0.023663,0,-0.0063533,0,0,0,0.030651,6.463e-05,0.0092147,-2.291,0.01331,0.027192,6.5238e-07,0.5,0.17,0
0.022371,0.0061519,0.030634,9.1121e-05,0.0092175,-0.0011817,0,0,0.055682,-0.023728,0,-0.0061451,0,0,0,0.030679,4.5434e-05,0.0092175,-2.2124,0.013314,0.027232,6.5462e-07,0.51,0.17,0
0.022928,0.0062533,0.03066,6.8574e-05,0.0092186,-0.0011447,0,0,0.055748,-0.02379,0,-0.0059524,0,0,0,0.030703,2.5776e-05,0.0092186,-2.1399,0.013316,0.027269,6.5655e-07,0.52,0.17,0
0.023486,0.0063504,0.030682,4.6677e-05,0.0092185,-0.0011109,0,0,0.055804,-0.023847,0,-0.0057767,0,0,0,0.030722,6.4267e-06,0.0092185,-2.074,0.013316,0.027301,6.5822e-07,0.53,0.17,0
0.024044,0.0064433,0.0307,2.5727e-05,0.0092177,-0.0010804,0,0,0.055854,-0.023899,0,-0.0056181,0,0,0,0.030738,-1.2296e-05,0.0092177,-2.0147,0.013314,0.02733,6.5967e-07,0.54,0.17,0
0.024603,0.0065322,0.030716,5.7564e-06,0.0092164,-0.0010531,0,0,0.055898,-0.023948,0,-0.0054759,0,0,0,0.030752,-3.0323e-05,0.0092164,-1.9616,0.013313,0.027357,6.6095e-07,0.55,0.17,0
0.025162,0.0066171,0.030729,-1.3326e-05,0.0092147,-0.0010285,0,0,0.055937,-0.023993,0,-0.0053484,0,0,0,0.030763,-4.7709e-05,0.0092147,-1.9141,0.01331,0.027381,6.621e-07,0.56,0.17,0
0.025721,0.0066981,0.030741,-3.1654e-05,0.0092129,-0.0010064,0,0,0.055974,-0.024036,0,-0.0052334,0,0,0,0.030774,-6.4542e-05,0.0092129,-1.8712,0.013307,0.027404,6.6317e-07,0.57,0.17,0
0.026281,0.0067755,0.030753,-4.9348e-05,0.009211,-0.00098628,0,0,0.056008,-0.024077,0,-0.0051286,0,0,0,0.030784,-8.0903e-05,0.009211,-1.8321,0.013305,0.027426,6.6419e-07,0.58,0.17,0
0.026842,0.0068492,0.030763,-6.6499e-05,0.009209,-0.00096762,0,0,0.056041,-0.024116,0,-0.0050316,0,0,0,0.030794,-9.6845e-05,0.009209,-1.7959,0.013302,0.027447,6.6516e-07,0.59,0.17,0
0.027402,0.0069194,0.030774,-8.3156e-05,0.0092072,-0.00095002,0,0,0.056073,-0.024155,0,-0.0049401,0,0,0,0.030803,-0.00011238,0.0092072,-1.7618,0.013299,0.027468,6.6612e-07,0.6,0.17,0
0.027963,0.0069862,0.030784,-9.9331e-05,0.0092054,-0.00093307,0,0,0.056104,-0.024192,0,-0.0048519,0,0,0,0.030812,-0.0001275,0.0092054,-1.7289,0.013297,0.027488,6.6706e-07,0.61,0.17,0
0.028524,0.0070496,0.030794,-0.00011501,0.0092037,-0.00091642,0,0,0.056135,-0.024229,0,-0.0047654,0,0,0,0.030821,-0.00014216,0.0092037,-1.6968,0.013294,0.027508,6.6798e-07,0.62,0.17,0
0.029086,0.0071099,0.030804,-0.00013014,0.0092022,-0.0008998,0,0,0.056165,-0.024264,0,-0.004679,0,0,0,0.03083,-0.0001563,0.0092022,-1.6647,0.013292,0.027528,6.689e-07,0.63,0.17,0
0.029648,0.0071671,0.030814,-0.00014469,0.0092009,-0.00088298,0,0,0.056195,-0.024299,0,-0.0045915,0,0,0,0.030839,-0.00016986,0.0092009,-1.6323,0.01329,0.027547,6.698e-07,0.64,0.17,0
0.03021,0.0072214,0.030824,-0.0001586,0.0091997,-0.00086577,0,0,0.056224,-0.024332,0,-0.004502,0,0,0,0.030849,-0.00018278,0.0091997,-1.5994,0.013288,0.027565,6.7068e-07,0.65,0.17,0
0.030772,0.0072728,0.030834,-0.00017182,0.0091988,-0.00084806,0,0,0.056253,-0.024363,0,-0.0044099,0,0,0,0.030858,-0.000195,0.0091988,-1.5655,0.013287,0.027583,6.7154e-07,0.66,0.17,0
0.031335,0.0073215,0.030844,-0.0001843,0.009198,-0.00082975,0,0,0.05628,-0.024394,0,-0.0043147,0,0,0,0.030866,-0.00020648,0.009198,-1.5307,0.013286,0.0276,6.7238e-07,0.67,0.17,0
0.031898,0.0073675,0.030854,-0.00019601,0.0091974,-0.00081081,0,0,0.056307,-0.024423,0,-0.0042162,0,0,0,0.030875,-0.00021717,0.0091974,-1.4948,0.013285,0.027616,6.7319e-07,0.68,0.17,0
0.032461,0.0074111,0.030863,-0.00020692,0.009197,-0.00079119,0,0,0.056333,-0.02445,0,-0.0041142,0,0,0,0.030884,-0.00022706,0.009197,-1.4577,0.013285,0.027631,6.7397e-07,0.69,0.17,0
0.033024,0.0074523,0.030873,-0.00021703,0.0091967,-0.00077091,0,0,0.056358,-0.024476,0,-0.0040088,0,0,0,0.030892,-0.00023614,0.0091967,-1.4195,0.013284,0.027646,6.7472e-07,0.7,0.17,0
0.033588,0.0074912,0.030882,-0.00022634,0.0091967,-0.00074998,0,0,0.056382,-0.0245,0,-0.0038999,0,0,0,0.0309,-0.00024442,0.0091967,-1.3802,0.013284,0.02766,6.7544e-07,0.71,0.17,0
0.034152,0.0075279,0.030891,-0.00023486,0.0091968,-0.00072843,0,0,0.056404,-0.024522,0,-0.0037878,0,0,0,0.030908,-0.0002519,0.0091968,-1.3399,0.013284,0.027673,6.7612e-07,0.72,0.17,0
0.034716,0.0075625,0.030899,-0.0002426,0.009197,-0.00070629,0,0,0.056426,-0.024543,0,-0.0036727,0,0,0,0.030915,-0.00025862,0.009197,-1.2985,0.013285,0.027685,6.7677e-07,0.73,0.17,0
0.03528,0.0075952,0.030908,-0.00024961,0.0091975,-0.00068359,0,0,0.056447,-0.024562,0,-0.0035547,0,0,0,0.030923,-0.00026461,0.0091975,-1.2562,0.013285,0.027696,6.7739e-07,0.74,0.17,0
0.035845,0.0076259,0.030916,-0.00025591,0.009198,-0.00066039,0,0,0.056467,-0.02458,0,-0.003434,0,0,0,0.03093,-0.00026991,0.009198,-1.2131,0.013286,0.027707,6.7797e-07,0.75,0.17,0
0.03641,0.0076547,0.030924,-0.00026155,0.0091987,-0.00063672,0,0,0.056485,-0.024597,0,-0.0033109,0,0,0,0.030937,-0.00027456,0.0091987,-1.1692,0.013287,0.027717,6.7853e-07,0.76,0.17,0
0.036975,0.0076819,0.030931,-0.00026657,0.0091994,-0.00061262,0,0,0.056503,-0.024612,0,-0.0031856,0,0,0,0.030943,-0.00027861,0.0091994,-1.1245,0.013288,0.027726,6.7905e-07,0.77,0.17,0
0.03754,0.0077073,0.030939,-0.00027102,0.0092003,-0.00058814,0,0,0.05652,-0.024625,0,-0.0030583,0,0,0,0.03095,-0.00028211,0.0092003,-1.0792,0.013289,0.027734,6.7955e-07,0.78,0.17,0
0.038105,0.0077312,0.030946,-0.00027494,0.0092012,-0.00056331,0,0,0.056536,-0.024638,0,-0.0029292,0,0,0,0.030956,-0.00028511,0.0092012,-1.0333,0.013291,0.027742,6.8002e-07,0.79,0.17,0
0.03867,0.0077535,0.030952,-0.00027838,0.0092022,-0.00053816,0,0,0.056551,-0.02465,0,-0.0027984,0,0,0,0.030962,-0.00028766,0.0092022,-0.98689,0.013292,0.027749,6.8047e-07,0.8,0.17,0
0.039236,0.0077744,0.030959,-0.00028139,0.0092033,-0.00051272,0,0,0.056565,-0.02466,0,-0.0026661,0,0,0,0.030967,-0.00028981,0.0092033,-0.93999,0.013294,0.027756,6.8089e-07,0.81,0.17,0
0.039802,0.0077938,0.030965,-0.00028401,0.0092044,-0.00048702,0,0,0.056578,-0.02467,0,-0.0025325,0,0,0,0.030973,-0.00029161,0.0092044,-0.89266,0.013295,0.027762,6.8128e-07,0.82,0.17,0
0.040368,0.0078119,0.030971,-0.00028628,0.0092055,-0.00046109,0,0,0.056591,-0.024679,0,-0.0023977,0,0,0,0.030978,-0.00029309,0.0092055,-0.84494,0.013297,0.027768,6.8166e-07,0.83,0.17,0
0.040934,0.0078287,0.030977,-0.00028824,0.0092066,-0.00043495,0,0,0.056603,-0.024687,0,-0.0022617,0,0,0,0.030983,-0.0002943,0.0092066,-0.79686,0.013298,0.027774,6.8201e-07,0.84,0.17,0
0.0415,0.0078442,0.030982,-0.00028993,0.0092077,-0.00040861,0,0,0.056614,-0.024694,0,-0.0021248,0,0,0,0.030988,-0.00029528,0.0092077,-0.74847,0.0133,0.027779,6.8234e-07,0.85,0.17,0
0.042066,0.0078586,0.030987,-0.00029138,0.0092088,-0.0003821,0,0,0.056624,-0.0247,0,-0.0019869,0,0,0,0.030992,-0.00029605,0.0092088,-0.69978,0.013302,0.027783,6.8265e-07,0.86,0.17,0
0.042632,0.0078717,0.030992,-0.00029261,0.0092099,-0.00035544,0,0,0.056634,-0.024707,0,-0.0018483,0,0,0,0.030996,-0.00029666,0.0092099,-0.65083,0.013303,0.027787,6.8294e-07,0.87,0.17,0
0.043199,0.0078837,0.030997,-0.00029367,0.0092109,-0.00032862,0,0,0.056643,-0.024712,0,-0.0017088,0,0,0,0.031,-0.00029713,0.0092109,-0.60165,0.013305,0.027791,6.8321e-07,0.88,0.17,0
0.043765,0.0078947,0.031001,-0.00029456,0.0092119,-0.00030168,0,0,0.056652,-0.024717,0,-0.0015688,0,0,0,0.031004,-0.00029748,0.0092119,-0.55224,0.013306,0.027795,6.8346e-07,0.89,0.17,0
0.044332,0.0079045,0.031005,-0.00029532,0.0092129,-0.00027462,0,0,0.056659,-0.024721,0,-0.001428,0,0,0,0.031007,-0.00029774,0.0092129,-0.50265,0.013307,0.027798,6.8369e-07,0.9,0.17,0
0.044898,0.0079134,0.031008,-0.00029596,0.0092137,-0.00024746,0,0,0.056666,-0.024725,0,-0.0012868,0,0,0,0.03101,-0.00029792,0.0092137,-0.45287,0.013309,0.027801,6.8389e-07,0.91,0.17,0
0.045465,0.0079212,0.031012,-0.00029649,0.0092145,-0.0002202,0,0,0.056672,-0.024729,0,-0.001145,0,0,0,0.031013,-0.00029805,0.0092145,-0.40295,0.01331,0.027803,6.8408e-07,0.92,0.17,0
0.046032,0.0079281,0.031014,-0.00029693,0.0092153,-0.00019286,0,0,0.056678,-0.024732,0,-0.0010029,0,0,0,0.031016,-0.00029813,0.0092153,-0.35288,0.013311,0.027806,6.8425e-07,0.93,0.17,0
0.046598,0.007934,0.031017,-0.00029729,0.0092159,-0.00016544,0,0,0.056683,-0.024734,0,-0.00086029,0,0,0,0.031018,-0.00029818,0.0092159,-0.30269,0.013312,0.027808,6.8439e-07,0.94,0.17,0
0.047165,0.007939,0.031019,-0.00029758,0.0092165,-0.00013796,0,0,0.056687,-0.024736,0,-0.0007174,0,0,0,0.03102,-0.0002982,0.0092165,-0.2524,0.013313,0.027809,6.8451e-07,0.95,0.17,0
0.047732,0.007943,0.031021,-0.00029781,0.0092169,-0.00011043,0,0,0.05669,-0.024738,0,-0.00057425,0,0,0,0.031021,-0.00029821,0.0092169,-0.20202,0.013313,0.027811,6.8462e-07,0.96,0.17,0
0.048299,0.0079461,0.031022,-0.00029798,0.0092173,-8.2861e-05,0,0,0.056693,-0.02474,0,-0.00043087,0,0,0,0.031022,-0.00029821,0.0092173,-0.15158,0.013314,0.027812,6.8469e-07,0.97,0.17,0
0.048866,0.0079484,0.031023,-0.0002981,0.0092175,-5.5258e-05,0,0,0.056695,-0.024741,0,-0.00028734,0,0,0,0.031023,-0.00029821,0.0092175,-0.10108,0.013314,0.027813,6.8475e-07,0.98,0.17,0
0.049433,0.0079497,0.031024,-0.00029817,0.0092177,-2.5499e-05,0,0,0.056696,-0.024741,0,-0.00013259,0,0,0,0.031024,-0.00029821,0.0092177,-0.046643,0.013314,0.027813,6.8479e-07,0.99,0.17,0
0.049717,0.0079501,0.031024,-0.00029819,0.0092177,-9.5478e-06,0,0,0.056696,-0.024741,0,-4.9649e-05,0,0,0,0.031024,-0.00029821,0.0092177,-0.017465,0.013314,0.027813,6.848e-07,1,0.17,0
0.00022119,0.00016024,0.029764,0.012587,0.012705,0.0061474,0,0,0.044354,-0.00030816,0,0.031967,0,0,0,0.031739,0.010612,0.012705,17.8,0.018352,0.020162,4.0575e-07,0,0.18,0
0.00044354,0.00031466,0.029788,0.01241,0.012659,0.0060795,0,0,0.044534,-0.00064848,0,0.031613,0,0,0,0.031706,0.010492,0.012659,17.495,0.018286,0.020218,4.0812e-07,0.01,0.18,0
0.00089067,0.00061202,0.029869,0.012039,0.012572,0.0058945,0,0,0.044971,-0.0013869,0,0.030652,0,0,0,0.031645,0.010263,0.012572,16.743,0.01816,0.020327,4.1272e-07,0.02,0.18,0
0.001343,0.00088657,0.029986,0.011625,0.012483,0.0056642,0,0,0.045507,-0.0022309,0,0.029454,0,0,0,0.031597,0.010015,0.012483,15.846,0.018032,0.02046,4.1848e-07,0.03,0.18,0
0.0018008,0.0011384,0.030102,0.011161,0.012379,0.0054383,0,0,0.04608,-0.0031663,0,0.028279,0,0,0,0.031556,0.0097069,0.012379,14.943,0.017881,0.020644,4.2657e-07,0.04,0.18,0
0.0022646,0.0013673,0.030213,0.010647,0.012258,0.0052128,0,0,0.046683,-0.004189,0,0.027107,0,0,0,0.031519,0.0093408,0.012258,14.037,0.017706,0.020874,4.3667e-07,0.05,0.18,0
0.0027345,0.0015728,0.030313,0.01008,0.012118,0.0049898,0,0,0.047307,-0.0052982,0,0.025947,0,0,0,0.03148,0.0089127,0.012118,13.141,0.017504,0.021149,4.4863e-07,0.06,0.18,0
0.0032107,0.0017545,0.030395,0.009463,0.011957,0.0047738,0,0,0.047937,-0.0064851,0,0.024824,0,0,0,0.031435,0.0084223,0.011957,12.274,0.017272,0.021466,4.6218e-07,0.07,0.18,0
0.0036932,0.0019115,0.030463,0.0087983,0.011778,0.0045674,0,0,0.04858,-0.0077482,0,0.023751,0,0,0,0.03139,0.0078717,0.011778,11.446,0.017013,0.021829,4.7747e-07,0.08,0.18,0
0.0041823,0.0020433,0.030511,0.0080419,0.011566,0.0043796,0,0,0.049258,-0.0091626,0,0.022774,0,0,0,0.031338,0.0072155,0.011566,10.666,0.016706,0.022269,4.9549e-07,0.09,0.18,0
0.0046784,0.0021498,0.030557,0.0071542,0.011313,0.0042568,0,0,0.050034,-0.010814,0,0.022135,0,0,0,0.031309,0.0064019,0.011313,10.013,0.016342,0.022853,5.198e-07,0.1,0.18,0
0.005183,0.0022332,0.031019,0.0063449,0.011209,0.0042551,0,0,0.050319,-0.012328,0,0.02181,0,0,0,0.031738,0.005626,0.011209,9.5734,0.016191,0.023818,5.8163e-07,0.11,0.18,0
0.0056887,0.0023014,0.03195,0.0057334,0.011305,0.0041898,0,0,0.048006,-0.012844,0,0.020325,0,0,0,0.03263,0.0050532,0.011305,9.0404,0.016329,0.025044,6.8939e-07,0.12,0.18,0
0.0061568,0.0023665,0.032524,0.0052943,0.011346,0.003683,0,0,0.043113,-0.01227,0,0.016601,0,0,0,0.03308,0.0047391,0.011346,7.9023,0.016388,0.025685,7.6522e-07,0.13,0.18,0
0.0065664,0.0024404,0.032502,0.0050268,0.011259,0.002675,0,0,0.038599,-0.011391,0,0.011537,0,0,0,0.032853,0.0046755,0.011259,5.9327,0.016263,0.025535,7.6377e-07,0.14,0.18,0
0.006934,0.0025293,0.032542,0.0046007,0.011143,0.0015671,0,0,0.034874,-0.010647,0,0.0065408,0,0,0,0.032707,0.0044358,0.011143,3.5946,0.016095,0.025589,7.4291e-07,0.15,0.18,0
0.0072615,0.0026221,0.033366,0.0042029,0.011271,0.00080992,0,0,0.031711,-0.010106,0,0.0030404,0,0,0,0.033427,0.004142,0.011271,1.8451,0.01628,0.026452,7.6538e-07,0.16,0.18,0
0.0075648,0.0027055,0.034626,0.0042617,0.011666,0.00043755,0,0,0.030397,-0.0098095,0,0.0013358,0,0,0,0.034646,0.0042416,0.011666,0.91156,0.016851,0.027456,8.179e-07,0.17,0.18,0
0.007868,0.0027813,0.03535,0.0042643,0.011884,0.00019307,0,0,0.030506,-0.0099061,0,0.00050199,0,0,0,0.035356,0.004259,0.011884,0.36185,0.017166,0.028073,8.6006e-07,0.18,0.18,0
0.0081749,0.0028552,0.035586,0.0038465,0.01183,-5.2431e-05,0,0,0.030883,-0.010378,0,-0.00013632,0,0,0,0.035588,0.0038445,0.01183,-0.088631,0.017087,0.0286,8.9313e-07,0.19,0.18,0
0.0084856,0.0029252,0.035691,0.0034125,0.011731,-0.00029736,0,0,0.031148,-0.010814,0,-0.00077313,0,0,0,0.035695,0.0034087,0.011731,-0.52468,0.016945,0.029034,9.175e-07,0.2,0.18,0
0.0087979,0.0029871,0.035697,0.003192,0.011667,-0.00051874,0,0,0.031239,-0.011017,0,-0.0013487,0,0,0,0.035706,0.0031831,0.011667,-0.91333,0.016852,0.02922,9.2654e-07,0.21,0.18,0
0.0091104,0.0030424,0.03568,0.0030271,0.011612,-0.0006866,0,0,0.031288,-0.01116,0,-0.0017852,0,0,0,0.035694,0.0030123,0.011612,-1.2034,0.016773,0.029343,9.317e-07,0.22,0.18,0
0.0094236,0.003094,0.035683,0.0028209,0.011551,-0.00081302,0,0,0.031371,-0.011349,0,-0.0021139,0,0,0,0.035703,0.0028005,0.011551,-1.4157,0.016685,0.029517,9.3991e-07,0.23,0.18,0
0.0097378,0.0031435,0.035679,0.002582,0.011478,-0.0009247,0,0,0.031461,-0.011565,0,-0.0024042,0,0,0,0.035705,0.0025561,0.011478,-1.5985,0.01658,0.02971,9.4867e-07,0.24,0.18,0
0.010053,0.0031916,0.03564,0.0023111,0.011385,-0.0010209,0,0,0.031531,-0.011796,0,-0.0026543,0,0,0,0.035671,0.0022796,0.011385,-1.7521,0.016445,0.029898,9.555e-07,0.25,0.18,0
0.010368,0.0032389,0.035566,0.002002,0.01127,-0.0010924,0,0,0.031585,-0.012049,0,-0.0028402,0,0,0,0.035602,0.0019662,0.01127,-1.8615,0.01628,0.030083,9.6051e-07,0.26,0.18,0
0.010685,0.0032858,0.035492,0.0016412,0.01114,-0.0011392,0,0,0.031658,-0.012348,0,-0.0029619,0,0,0,0.03553,0.0016027,0.01114,-1.9251,0.016091,0.030307,9.6678e-07,0.27,0.18,0
0.011002,0.0033316,0.035448,0.0011999,0.010994,-0.0011954,0,0,0.03179,-0.012733,0,-0.003108,0,0,0,0.03549,0.0011581,0.010994,-1.996,0.015881,0.030623,9.7804e-07,0.28,0.18,0
0.01132,0.003374,0.035382,0.00076638,0.010844,-0.0012873,0,0,0.031899,-0.013101,0,-0.003347,0,0,0,0.03543,0.00071818,0.010844,-2.1267,0.015664,0.030919,9.8718e-07,0.29,0.18,0
0.01164,0.0034119,0.035221,0.00057042,0.010737,-0.0013784,0,0,0.031828,-0.013217,0,-0.0035839,0,0,0,0.035276,0.00051462,0.010737,-2.2757,0.015509,0.030944,9.8079e-07,0.3,0.18,0
0.011957,0.0034504,0.034942,0.00037233,0.010594,-0.0014229,0,0,0.031652,-0.013288,0,-0.0036995,0,0,0,0.035003,0.00031045,0.010594,-2.356,0.015303,0.030865,9.6434e-07,0.31,0.18,0
0.012273,0.0034932,0.034186,-0.00033546,0.010155,-0.0014351,0,0,0.031828,-0.013919,0,-0.0039747,0,0,0,0.034258,-0.00040719,0.010155,-2.4445,0.014669,0.030777,9.3594e-07,0.32,0.18,0
0.012592,0.0035346,0.032934,-0.0010482,0.0095658,-0.0015583,0,0,0.033578,-0.015254,0,-0.0051572,0,0,0,0.033034,-0.0011482,0.0095658,-2.8223,0.013817,0.030283,8.9618e-07,0.33,0.18,0
0.01294,0.0035745,0.032214,-0.0011802,0.00931,-0.0019924,0,0,0.03739,-0.017271,0,-0.0078758,0,0,0,0.032384,-0.0013503,0.00931,-3.7137,0.013448,0.029873,8.9956e-07,0.34,0.18,0
0.013337,0.0036345,0.032331,-0.0015454,0.0092357,-0.0026617,0,0,0.042041,-0.01999,0,-0.011423,0,0,0,0.032599,-0.0018128,0.0092357,-4.8044,0.01334,0.030445,9.5486e-07,0.35,0.18,0
0.013787,0.0037376,0.032436,-0.0022752,0.0090483,-0.0031674,0,0,0.047692,-0.023224,0,-0.014275,0,0,0,0.032761,-0.0026001,0.0090483,-5.4288,0.01307,0.03122,9.7089e-07,0.36,0.18,0
0.014308,0.0038845,0.031927,-0.0023982,0.0088586,-0.0031749,0,0,0.053706,-0.026123,0,-0.01532,0,0,0,0.032232,-0.0027034,0.0088586,-5.3444,0.012796,0.030826,8.8568e-07,0.37,0.18,0
0.014876,0.004059,0.031112,-0.0019747,0.0087412,-0.0027666,0,0,0.056849,-0.027215,0,-0.014141,0,0,0,0.031347,-0.0022093,0.0087412,-4.7582,0.012626,0.029639,7.6649e-07,0.38,0.18,0
0.015449,0.0042414,0.030743,-0.0014236,0.0087958,-0.0023235,0,0,0.057062,-0.02657,0,-0.012082,0,0,0,0.030912,-0.0015923,0.0087958,-4.1067,0.012705,0.028754,7.0708e-07,0.39,0.18,0
0.016018,0.0044204,0.030759,-0.00089134,0.0089604,-0.0020402,0,0,0.056677,-0.025614,0,-0.010609,0,0,0,0.030891,-0.0010229,0.0089604,-3.6724,0.012943,0.028277,6.9301e-07,0.4,0.18,0
0.016583,0.0045926,0.030781,-0.0005275,0.0090761,-0.0018637,0,0,0.056433,-0.024969,0,-0.0096914,0,0,0,0.030892,-0.00063834,0.0090761,-3.3945,0.01311,0.027969,6.8451e-07,0.41,0.18,0
0.017146,0.0047567,0.0308,-0.00028878,0.0091535,-0.0017348,0,0,0.056282,-0.02455,0,-0.0090211,0,0,0,0.030897,-0.00038549,0.0091535,-3.1841,0.013222,0.02777,6.7901e-07,0.42,0.18,0
0.017709,0.0049125,0.030825,-0.00011449,0.0092131,-0.0016352,0,0,0.05619,-0.024252,0,-0.008503,0,0,0,0.030911,-0.00020079,0.0092131,-3.0171,0.013308,0.027635,6.7561e-07,0.43,0.18,0
0.01827,0.0050606,0.030847,4.6088e-06,0.0092554,-0.0015594,0,0,0.056138,-0.024052,0,-0.0081086,0,0,0,0.030925,-7.4103e-05,0.0092554,-2.8871,0.013369,0.027546,6.7353e-07,0.44,0.18,0
0.018831,0.0052011,0.030869,7.331e-05,0.0092825,-0.001499,0,0,0.056124,-0.023944,0,-0.0077948,0,0,0,0.030941,4.6386e-07,0.0092825,-2.7802,0.013408,0.027501,6.7277e-07,0.45,0.18,0
0.019393,0.0053345,0.030893,0.00010447,0.0092991,-0.0014455,0,0,0.056143,-0.023906,0,-0.0075166,0,0,0,0.03096,3.6703e-05,0.0092991,-2.6822,0.013432,0.027489,6.7311e-07,0.46,0.18,0
0.019954,0.0054613,0.030917,0.00011116,0.0093085,-0.0013939,0,0,0.056182,-0.023913,0,-0.0072481,0,0,0,0.03098,4.8171e-05,0.0093085,-2.5854,0.013446,0.027497,6.741e-07,0.47,0.18,0
0.020516,0.0055821,0.03094,0.00010353,0.0093129,-0.0013427,0,0,0.056229,-0.023944,0,-0.0069822,0,0,0,0.030998,4.5125e-05,0.0093129,-2.4887,0.013452,0.027516,6.7531e-07,0.48,0.18,0
0.021079,0.0056974,0.030958,8.8409e-05,0.009314,-0.0012926,0,0,0.056275,-0.023987,0,-0.0067215,0,0,0,0.031012,3.4337e-05,0.009314,-2.3936,0.013454,0.027537,6.7649e-07,0.49,0.18,0
0.021642,0.0058075,0.030973,7.0038e-05,0.0093129,-0.0012445,0,0,0.056316,-0.024031,0,-0.0064716,0,0,0,0.031023,1.9959e-05,0.0093129,-2.3026,0.013452,0.027558,6.7748e-07,0.5,0.18,0
0.022205,0.0059129,0.030983,5.0824e-05,0.0093102,-0.0011996,0,0,0.056349,-0.024074,0,-0.0062381,0,0,0,0.03103,4.3355e-06,0.0093102,-2.2178,0.013448,0.027576,6.7827e-07,0.51,0.18,0
0.022769,0.0060138,0.03099,3.1957e-05,0.0093065,-0.0011586,0,0,0.056376,-0.024114,0,-0.0060247,0,0,0,0.031033,-1.137e-05,0.0093065,-2.1404,0.013443,0.027592,6.7885e-07,0.52,0.18,0
0.023333,0.0061105,0.030994,1.3874e-05,0.0093023,-0.0011217,0,0,0.056398,-0.02415,0,-0.0058331,0,0,0,0.031034,-2.6713e-05,0.0093023,-2.0711,0.013437,0.027605,6.7928e-07,0.53,0.18,0
0.023897,0.0062029,0.030996,-3.405e-06,0.0092977,-0.0010891,0,0,0.056415,-0.024183,0,-0.0056632,0,0,0,0.031034,-4.1638e-05,0.0092977,-2.0098,0.01343,0.027617,6.796e-07,0.54,0.18,0
0.024461,0.0062914,0.030997,-2.0048e-05,0.0092931,-0.0010603,0,0,0.05643,-0.024214,0,-0.0055137,0,0,0,0.031033,-5.6267e-05,0.0092931,-1.9557,0.013423,0.027628,6.7987e-07,0.55,0.18,0
0.025025,0.0063759,0.030998,-3.6274e-05,0.0092884,-0.001035,0,0,0.056444,-0.024244,0,-0.0053819,0,0,0,0.031032,-7.0763e-05,0.0092884,-1.9081,0.013417,0.027639,6.8014e-07,0.56,0.18,0
0.02559,0.0064566,0.030998,-5.2275e-05,0.0092838,-0.0010125,0,0,0.056458,-0.024274,0,-0.005265,0,0,0,0.031031,-8.5265e-05,0.0092838,-1.8657,0.01341,0.027649,6.8042e-07,0.57,0.18,0
0.026154,0.0065336,0.031,-6.8182e-05,0.0092794,-0.0009923,0,0,0.056472,-0.024304,0,-0.00516,0,0,0,0.031031,-9.9851e-05,0.0092794,-1.8276,0.013404,0.027661,6.8073e-07,0.58,0.18,0
0.026719,0.0066069,0.031001,-8.4056e-05,0.0092751,-0.00097378,0,0,0.056488,-0.024334,0,-0.0050637,0,0,0,0.031032,-0.00011454,0.0092751,-1.7926,0.013397,0.027673,6.811e-07,0.59,0.18,0
0.027284,0.0066768,0.031003,-9.9896e-05,0.009271,-0.00095642,0,0,0.056504,-0.024364,0,-0.0049734,0,0,0,0.031033,-0.00012928,0.009271,-1.7597,0.013391,0.027686,6.8151e-07,0.6,0.18,0
0.027849,0.0067432,0.031006,-0.00011565,0.0092672,-0.00093975,0,0,0.056521,-0.024395,0,-0.0048867,0,0,0,0.031035,-0.00014401,0.0092672,-1.728,0.013386,0.027699,6.8197e-07,0.61,0.18,0
0.028415,0.0068063,0.03101,-0.00013123,0.0092635,-0.00092337,0,0,0.05654,-0.024426,0,-0.0048015,0,0,0,0.031037,-0.00015859,0.0092635,-1.6969,0.013381,0.027713,6.8246e-07,0.62,0.18,0
0.02898,0.0068663,0.031014,-0.00014654,0.0092601,-0.00090698,0,0,0.056559,-0.024457,0,-0.0047163,0,0,0,0.03104,-0.00017292,0.0092601,-1.6659,0.013376,0.027727,6.8299e-07,0.63,0.18,0
0.029546,0.0069232,0.031018,-0.00016146,0.0092569,-0.00089033,0,0,0.056579,-0.024488,0,-0.0046297,0,0,0,0.031043,-0.00018686,0.0092569,-1.6343,0.013371,0.027741,6.8353e-07,0.64,0.18,0
0.030112,0.0069771,0.031023,-0.00017588,0.009254,-0.00087324,0,0,0.056598,-0.024518,0,-0.0045409,0,0,0,0.031047,-0.0002003,0.009254,-1.602,0.013367,0.027755,6.8409e-07,0.65,0.18,0
0.030678,0.0070282,0.031028,-0.0001897,0.0092514,-0.00085558,0,0,0.056618,-0.024547,0,-0.004449,0,0,0,0.031051,-0.00021314,0.0092514,-1.5688,0.013363,0.027769,6.8465e-07,0.66,0.18,0
0.031244,0.0070766,0.031033,-0.00020285,0.009249,-0.00083727,0,0,0.056638,-0.024575,0,-0.0043538,0,0,0,0.031055,-0.00022528,0.009249,-1.5344,0.01336,0.027783,6.852e-07,0.67,0.18,0
0.03181,0.0071224,0.031038,-0.00021525,0.0092468,-0.00081827,0,0,0.056657,-0.024601,0,-0.004255,0,0,0,0.031059,-0.00023667,0.0092468,-1.4987,0.013357,0.027795,6.8574e-07,0.68,0.18,0
0.032377,0.0071657,0.031043,-0.00022687,0.0092449,-0.00079856,0,0,0.056676,-0.024627,0,-0.0041525,0,0,0,0.031064,-0.00024725,0.0092449,-1.4619,0.013354,0.027808,6.8626e-07,0.69,0.18,0
0.032944,0.0072067,0.031048,-0.00023766,0.0092432,-0.00077815,0,0,0.056694,-0.02465,0,-0.0040464,0,0,0,0.031068,-0.00025701,0.0092432,-1.4239,0.013351,0.027819,6.8676e-07,0.7,0.18,0
0.033511,0.0072453,0.031054,-0.00024763,0.0092418,-0.00075706,0,0,0.056711,-0.024672,0,-0.0039367,0,0,0,0.031072,-0.00026593,0.0092418,-1.3847,0.013349,0.02783,6.8724e-07,0.71,0.18,0
0.034078,0.0072818,0.031059,-0.00025676,0.0092406,-0.00073533,0,0,0.056727,-0.024693,0,-0.0038237,0,0,0,0.031076,-0.00027403,0.0092406,-1.3444,0.013347,0.02784,6.8769e-07,0.72,0.18,0
0.034646,0.0073163,0.031064,-0.00026508,0.0092396,-0.000713,0,0,0.056743,-0.024712,0,-0.0037076,0,0,0,0.03108,-0.00028131,0.0092396,-1.3031,0.013346,0.027849,6.8812e-07,0.73,0.18,0
0.035213,0.0073487,0.031069,-0.00027263,0.0092388,-0.00069011,0,0,0.056757,-0.02473,0,-0.0035886,0,0,0,0.031084,-0.00028782,0.0092388,-1.2608,0.013345,0.027858,6.8852e-07,0.74,0.18,0
0.035781,0.0073792,0.031073,-0.00027942,0.0092381,-0.00066671,0,0,0.056771,-0.024746,0,-0.0034669,0,0,0,0.031087,-0.0002936,0.0092381,-1.2177,0.013344,0.027866,6.889e-07,0.75,0.18,0
0.036348,0.007408,0.031078,-0.0002855,0.0092377,-0.00064284,0,0,0.056784,-0.02476,0,-0.0033428,0,0,0,0.031091,-0.00029868,0.0092377,-1.1737,0.013343,0.027873,6.8925e-07,0.76,0.18,0
0.036916,0.007435,0.031082,-0.00029093,0.0092374,-0.00061855,0,0,0.056797,-0.024774,0,-0.0032164,0,0,0,0.031094,-0.00030313,0.0092374,-1.129,0.013343,0.02788,6.8958e-07,0.77,0.18,0
0.037484,0.0074603,0.031087,-0.00029574,0.0092373,-0.00059387,0,0,0.056808,-0.024786,0,-0.0030881,0,0,0,0.031098,-0.00030699,0.0092373,-1.0837,0.013343,0.027886,6.899e-07,0.78,0.18,0
0.038053,0.007484,0.031091,-0.0003,0.0092372,-0.00056883,0,0,0.056819,-0.024797,0,-0.0029579,0,0,0,0.031101,-0.00031031,0.0092372,-1.0378,0.013343,0.027891,6.9019e-07,0.79,0.18,0
0.038621,0.0075062,0.031095,-0.00030374,0.0092373,-0.00054348,0,0,0.05683,-0.024807,0,-0.0028261,0,0,0,0.031104,-0.00031315,0.0092373,-0.99135,0.013343,0.027897,6.9046e-07,0.8,0.18,0
0.039189,0.007527,0.031099,-0.00030702,0.0092375,-0.00051785,0,0,0.056839,-0.024816,0,-0.0026928,0,0,0,0.031107,-0.00031557,0.0092375,-0.9444,0.013343,0.027901,6.9072e-07,0.81,0.18,0
0.039758,0.0075464,0.031103,-0.00030988,0.0092378,-0.00049195,0,0,0.056848,-0.024824,0,-0.0025581,0,0,0,0.03111,-0.0003176,0.0092378,-0.89701,0.013344,0.027905,6.9096e-07,0.82,0.18,0
0.040326,0.0075644,0.031106,-0.00031238,0.0092382,-0.00046581,0,0,0.056857,-0.024831,0,-0.0024222,0,0,0,0.031113,-0.00031929,0.0092382,-0.84922,0.013344,0.027909,6.9119e-07,0.83,0.18,0
0.040895,0.0075811,0.03111,-0.00031454,0.0092386,-0.00043946,0,0,0.056865,-0.024838,0,-0.0022852,0,0,0,0.031116,-0.0003207,0.0092386,-0.80105,0.013345,0.027913,6.9141e-07,0.84,0.18,0
0.041463,0.0075966,0.031113,-0.00031642,0.009239,-0.00041291,0,0,0.056873,-0.024844,0,-0.0021471,0,0,0,0.031119,-0.00032185,0.009239,-0.75255,0.013345,0.027916,6.9161e-07,0.85,0.18,0
0.042032,0.0076108,0.031116,-0.00031804,0.0092395,-0.00038617,0,0,0.05688,-0.02485,0,-0.0020081,0,0,0,0.031121,-0.00032279,0.0092395,-0.70374,0.013346,0.027919,6.918e-07,0.86,0.18,0
0.042601,0.0076239,0.031119,-0.00031943,0.00924,-0.00035927,0,0,0.056887,-0.024855,0,-0.0018682,0,0,0,0.031124,-0.00032355,0.00924,-0.65464,0.013347,0.027922,6.9198e-07,0.87,0.18,0
0.04317,0.0076359,0.031122,-0.00032063,0.0092405,-0.00033222,0,0,0.056893,-0.024859,0,-0.0017275,0,0,0,0.031126,-0.00032415,0.0092405,-0.60528,0.013347,0.027925,6.9215e-07,0.88,0.18,0
0.043739,0.0076468,0.031125,-0.00032165,0.009241,-0.00030503,0,0,0.056899,-0.024863,0,-0.0015861,0,0,0,0.031128,-0.00032462,0.009241,-0.55568,0.013348,0.027927,6.923e-07,0.89,0.18,0
0.044308,0.0076566,0.031128,-0.00032252,0.0092415,-0.00027771,0,0,0.056904,-0.024867,0,-0.0014441,0,0,0,0.03113,-0.00032499,0.0092415,-0.50587,0.013349,0.027929,6.9244e-07,0.9,0.18,0
0.044877,0.0076654,0.03113,-0.00032327,0.009242,-0.00025027,0,0,0.056909,-0.02487,0,-0.0013014,0,0,0,0.031132,-0.00032527,0.009242,-0.45585,0.01335,0.027931,6.9257e-07,0.91,0.18,0
0.045446,0.0076732,0.031132,-0.00032389,0.0092425,-0.00022273,0,0,0.056913,-0.024872,0,-0.0011582,0,0,0,0.031134,-0.00032548,0.0092425,-0.40566,0.01335,0.027932,6.9269e-07,0.92,0.18,0
0.046015,0.0076801,0.031134,-0.00032442,0.0092429,-0.00019509,0,0,0.056917,-0.024875,0,-0.0010145,0,0,0,0.031135,-0.00032564,0.0092429,-0.3553,0.013351,0.027934,6.928e-07,0.93,0.18,0
0.046584,0.0076859,0.031136,-0.00032485,0.0092432,-0.00016737,0,0,0.05692,-0.024877,0,-0.00087034,0,0,0,0.031137,-0.00032575,0.0092432,-0.30481,0.013351,0.027935,6.9289e-07,0.94,0.18,0
0.047154,0.0076909,0.031137,-0.0003252,0.0092436,-0.00013959,0,0,0.056923,-0.024879,0,-0.00072585,0,0,0,0.031138,-0.00032583,0.0092436,-0.25419,0.013352,0.027936,6.9297e-07,0.95,0.18,0
0.047723,0.0076949,0.031138,-0.00032548,0.0092438,-0.00011174,0,0,0.056925,-0.02488,0,-0.00058105,0,0,0,0.031139,-0.00032589,0.0092438,-0.20348,0.013352,0.027937,6.9303e-07,0.96,0.18,0
0.048292,0.007698,0.031139,-0.00032569,0.009244,-8.3847e-05,0,0,0.056927,-0.024881,0,-0.000436,0,0,0,0.031139,-0.00032593,0.009244,-0.15268,0.013353,0.027938,6.9308e-07,0.97,0.18,0
0.048861,0.0077003,0.03114,-0.00032584,0.0092442,-5.5918e-05,0,0,0.056929,-0.024882,0,-0.00029077,0,0,0,0.03114,-0.00032595,0.0092442,-0.10182,0.013353,0.027938,6.9312e-07,0.98,0.18,0
0.049431,0.0077016,0.03114,-0.00032593,0.0092443,-2.5838e-05,0,0,0.056929,-0.024883,0,-0.00013436,0,0,0,0.03114,-0.00032596,0.0092443,-0.047047,0.013353,0.027939,6.9314e-07,0.99,0.18,0
0.049715,0.007702,0.03114,-0.00032595,0.0092443,-9.7302e-06,0,0,0.05693,-0.024883,0,-5.0597e-05,0,0,0,0.03114,-0.00032597,0.0092443,-0.017717,0.013353,0.027939,6.9315e-07,1,0.18,0
0.00022638,0.00015697,0.03046,0.012862,0.012997,0.0060228,0,0,0.045406,-0.00035005,0,0.031319,0,0,0,0.032326,0.010997,0.012997,17.2,0.018773,0.020403,4.2218e-07,0,0.19,0
0.00045406,0.00030785,0.030486,0.012668,0.012946,0.0059543,0,0,0.045604,-0.00072396,0,0.030962,0,0,0,0.032295,0.010858,0.012946,16.884,0.0187,0.020474,4.2542e-07,0.01,0.19,0
0.00091208,0.0005976,0.030578,0.012273,0.012855,0.0057678,0,0,0.04608,-0.0015149,0,0.029992,0,0,0,0.032248,0.010603,0.012855,16.117,0.018569,0.020612,4.3182e-07,0.02,0.19,0
0.0013756,0.00086359,0.030712,0.011851,0.012769,0.0055373,0,0,0.046652,-0.0023865,0,0.028794,0,0,0,0.032222,0.010342,0.012769,15.22,0.018444,0.020773,4.3944e-07,0.03,0.19,0
0.0018451,0.001106,0.030849,0.011389,0.012671,0.0053125,0,0,0.047262,-0.0033347,0,0.027625,0,0,0,0.032209,0.010029,0.012671,14.329,0.018303,0.020984,4.495e-07,0.04,0.19,0
0.0023209,0.0013246,0.030992,0.01088,0.012562,0.0050867,0,0,0.047919,-0.0043724,0,0.026451,0,0,0,0.03221,0.0096623,0.012562,13.429,0.018145,0.021247,4.6206e-07,0.05,0.19,0
0.0028035,0.0015188,0.031143,0.010312,0.012437,0.0048631,0,0,0.048637,-0.0055238,0,0.025288,0,0,0,0.032227,0.0092282,0.012437,12.53,0.017964,0.021575,4.7784e-07,0.06,0.19,0
0.0032936,0.0016883,0.031291,0.0096728,0.012289,0.004654,0,0,0.049405,-0.0068024,0,0.024201,0,0,0,0.032255,0.008709,0.012289,11.667,0.017751,0.021976,4.9709e-07,0.07,0.19,0
0.0037916,0.0018324,0.031423,0.0089811,0.012121,0.0044657,0,0,0.050185,-0.0081646,0,0.023221,0,0,0,0.032283,0.0081212,0.012121,10.871,0.017509,0.022432,5.1869e-07,0.08,0.19,0
0.0042973,0.0019494,0.031586,0.0082246,0.011943,0.0042994,0,0,0.051071,-0.0096682,0,0.022357,0,0,0,0.032356,0.0074548,0.011943,10.126,0.017251,0.022989,5.4563e-07,0.09,0.19,0
0.004813,0.0020382,0.032187,0.0074385,0.011888,0.0041971,0,0,0.051576,-0.011261,0,0.021519,0,0,0,0.032886,0.0067391,0.011888,9.4362,0.017171,0.023993,6.1431e-07,0.1,0.19,0
0.0053329,0.0021069,0.033313,0.0067927,0.012032,0.0040353,0,0,0.049562,-0.012098,0,0.019603,0,0,0,0.03394,0.0061662,0.012032,8.6119,0.017379,0.025356,7.3784e-07,0.11,0.19,0
0.0058181,0.0021745,0.033732,0.006123,0.011956,0.0034529,0,0,0.043685,-0.011569,0,0.015317,0,0,0,0.034218,0.0056364,0.011956,7.2123,0.01727,0.026006,8.0992e-07,0.12,0.19,0
0.0062224,0.0022522,0.033621,0.0055991,0.011766,0.002543,0,0,0.036719,-0.010326,0,0.010019,0,0,0,0.033923,0.0052978,0.011766,5.3965,0.016996,0.026004,8.0028e-07,0.13,0.19,0
0.0065586,0.0023384,0.034146,0.0055313,0.011903,0.0016653,0,0,0.032616,-0.0094089,0,0.0057995,0,0,0,0.034295,0.0053821,0.011903,3.5777,0.017194,0.02627,7.9764e-07,0.14,0.19,0
0.006873,0.002432,0.034835,0.0053257,0.012048,0.00092609,0,0,0.03138,-0.0092816,0,0.0029302,0,0,0,0.034887,0.0052736,0.012048,1.9489,0.017403,0.026877,8.1911e-07,0.15,0.19,0
0.0071825,0.0025255,0.035424,0.0049137,0.012101,0.00045058,0,0,0.030907,-0.0095145,0,0.001286,0,0,0,0.035434,0.0049032,0.012101,0.88903,0.017479,0.027645,8.5257e-07,0.16,0.19,0
0.0074892,0.002609,0.035744,0.0047139,0.012138,0.00019426,0,0,0.030689,-0.0096507,0,0.00050506,0,0,0,0.035747,0.0047116,0.012138,0.35871,0.017532,0.028069,8.7374e-07,0.17,0.19,0
0.0077962,0.0026833,0.03573,0.0045243,0.012076,3.6616e-05,0,0,0.03075,-0.0098176,0,9.5202e-05,0,0,0,0.035731,0.004524,0.012076,0.068283,0.017444,0.0282,8.793e-07,0.18,0.19,0
0.0081042,0.0027529,0.035729,0.0041104,0.011952,-9.2161e-05,0,0,0.03091,-0.010194,0,-0.00023962,0,0,0,0.035729,0.0041096,0.011952,-0.1645,0.017264,0.02852,8.9455e-07,0.19,0.19,0
0.0084144,0.0028179,0.035754,0.0036529,0.011822,-0.00028668,0,0,0.031111,-0.01062,0,-0.00074537,0,0,0,0.035757,0.0036495,0.011822,-0.5089,0.017076,0.028902,9.1371e-07,0.2,0.19,0
0.0087265,0.0028773,0.035774,0.0033603,0.01174,-0.00050754,0,0,0.031244,-0.010894,0,-0.0013196,0,0,0,0.035783,0.0033517,0.01174,-0.89552,0.016958,0.029157,9.2666e-07,0.21,0.19,0
0.0090393,0.0029312,0.035754,0.0031571,0.011673,-0.00068405,0,0,0.031305,-0.011071,0,-0.0017785,0,0,0,0.035768,0.0031424,0.011673,-1.2009,0.016861,0.029307,9.3303e-07,0.22,0.19,0
0.0093526,0.0029811,0.035708,0.0029392,0.011594,-0.00080766,0,0,0.031348,-0.011251,0,-0.0020999,0,0,0,0.035728,0.0029192,0.011594,-1.4105,0.016747,0.029446,9.3774e-07,0.23,0.19,0
0.0096663,0.0030285,0.035661,0.002687,0.011504,-0.00089632,0,0,0.031404,-0.011463,0,-0.0023304,0,0,0,0.035686,0.0026626,0.011504,-1.5554,0.016618,0.029609,9.4333e-07,0.24,0.19,0
0.0099806,0.0030743,0.035613,0.0023972,0.011403,-0.00096246,0,0,0.031473,-0.011708,0,-0.0025024,0,0,0,0.035641,0.0023692,0.011403,-1.6579,0.016471,0.0298,9.499e-07,0.25,0.19,0
0.010296,0.0031188,0.035567,0.0020638,0.011289,-0.0010134,0,0,0.031561,-0.011993,0,-0.0026349,0,0,0,0.035598,0.0020331,0.011289,-1.7307,0.016307,0.030027,9.5786e-07,0.26,0.19,0
0.010612,0.0031623,0.035527,0.0016772,0.011161,-0.0010644,0,0,0.031675,-0.012329,0,-0.0027675,0,0,0,0.03556,0.0016437,0.011161,-1.7988,0.016122,0.030301,9.6789e-07,0.27,0.19,0
0.010929,0.0032042,0.035469,0.0012454,0.011014,-0.0011402,0,0,0.031792,-0.0127,0,-0.0029646,0,0,0,0.035508,0.0012073,0.011014,-1.9053,0.01591,0.030599,9.7789e-07,0.28,0.19,0
0.011248,0.0032435,0.035376,0.00087728,0.010876,-0.0012391,0,0,0.03185,-0.012998,0,-0.0032216,0,0,0,0.035421,0.00083254,0.010876,-2.0538,0.01571,0.030819,9.8275e-07,0.29,0.19,0
0.011566,0.0032806,0.035291,0.00067434,0.01079,-0.0012845,0,0,0.031852,-0.01315,0,-0.0033397,0,0,0,0.035339,0.00062635,0.01079,-2.1225,0.015585,0.03091,9.8248e-07,0.3,0.19,0
0.011885,0.0033177,0.035254,0.00040895,0.010699,-0.0012261,0,0,0.031922,-0.013377,0,-0.0031878,0,0,0,0.035298,0.00036539,0.010699,-2.0145,0.015454,0.031082,9.8715e-07,0.31,0.19,0
0.012205,0.0033552,0.035245,-0.00015482,0.010527,-0.001177,0,0,0.032133,-0.013886,0,-0.0030602,0,0,0,0.035284,-0.00019424,0.010527,-1.9024,0.015206,0.031517,1.0033e-06,0.32,0.19,0
0.012527,0.0033886,0.034916,-0.00065803,0.010277,-0.0012188,0,0,0.032658,-0.01449,0,-0.0033172,0,0,0,0.034959,-0.00070192,0.010277,-1.9907,0.014845,0.031635,1.0025e-06,0.33,0.19,0
0.012856,0.0034178,0.034372,-0.00083181,0.010062,-0.0014234,0,0,0.033491,-0.015091,0,-0.0043149,0,0,0,0.034445,-0.00090431,0.010062,-2.428,0.014534,0.031343,9.926e-07,0.34,0.19,0
0.013193,0.0034569,0.033793,-0.0013297,0.0097391,-0.0018036,0,0,0.035322,-0.016466,0,-0.0061563,0,0,0,0.033918,-0.0014545,0.0097391,-3.1281,0.014068,0.031322,9.9682e-07,0.35,0.19,0
0.01356,0.0035215,0.033377,-0.0021667,0.0093632,-0.0022317,0,0,0.040441,-0.0195,0,-0.008692,0,0,0,0.033554,-0.0023431,0.0093632,-3.7708,0.013525,0.031713,1.0228e-06,0.36,0.19,0
0.014008,0.0036255,0.033573,-0.0024942,0.0093236,-0.0025966,0,0,0.048742,-0.023649,0,-0.011423,0,0,0,0.033784,-0.0027055,0.0093236,-4.2252,0.013467,0.032207,1.0532e-06,0.37,0.19,0
0.014553,0.0037801,0.033267,-0.0022696,0.0092992,-0.0026145,0,0,0.055891,-0.026889,0,-0.012611,0,0,0,0.033468,-0.0024709,0.0092992,-4.2491,0.013432,0.031736,9.7793e-07,0.38,0.19,0
0.015142,0.0039684,0.032273,-0.0017089,0.0091691,-0.002295,0,0,0.058725,-0.027608,0,-0.011737,0,0,0,0.03243,-0.001866,0.0091691,-3.8602,0.013244,0.030324,8.3694e-07,0.39,0.19,0
0.015732,0.0041589,0.031756,-0.0010782,0.0092033,-0.0020067,0,0,0.058637,-0.026732,0,-0.010435,0,0,0,0.031879,-0.0012012,0.0092033,-3.4864,0.013294,0.029298,7.6546e-07,0.4,0.19,0
0.016315,0.0043385,0.031639,-0.00067693,0.0092885,-0.0018318,0,0,0.05811,-0.02591,0,-0.0095253,0,0,0,0.031743,-0.00078105,0.0092885,-3.2368,0.013417,0.028839,7.4571e-07,0.41,0.19,0
0.016894,0.0045073,0.031569,-0.00040065,0.0093504,-0.0017019,0,0,0.057768,-0.025353,0,-0.00885,0,0,0,0.03166,-0.00049146,0.0093504,-3.0413,0.013506,0.028533,7.3294e-07,0.42,0.19,0
0.01747,0.0046667,0.031506,-0.00018189,0.0093972,-0.0016095,0,0,0.057482,-0.024906,0,-0.0083693,0,0,0,0.031588,-0.00026369,0.0093972,-2.9021,0.013574,0.028287,7.2239e-07,0.43,0.19,0
0.018043,0.0048172,0.03145,-4.4265e-05,0.0094218,-0.0015485,0,0,0.057274,-0.024612,0,-0.008052,0,0,0,0.031526,-0.00012034,0.0094218,-2.8091,0.013609,0.028117,7.1465e-07,0.44,0.19,0
0.018615,0.0049591,0.031415,2.7232e-05,0.0094327,-0.0015007,0,0,0.057154,-0.024454,0,-0.0078035,0,0,0,0.031487,-4.4425e-05,0.0094327,-2.7318,0.013625,0.028021,7.1006e-07,0.45,0.19,0
0.019187,0.0050931,0.031396,5.5735e-05,0.0094355,-0.0014531,0,0,0.057097,-0.024387,0,-0.0075561,0,0,0,0.031463,-1.1555e-05,0.0094355,-2.6495,0.013629,0.027974,7.0763e-07,0.46,0.19,0
0.019757,0.0052199,0.031385,5.9935e-05,0.0094334,-0.0014021,0,0,0.057074,-0.024371,0,-0.0072907,0,0,0,0.031448,-2.7557e-06,0.0094334,-2.5581,0.013626,0.027953,7.0633e-07,0.47,0.19,0
0.020328,0.0053405,0.031376,5.1641e-05,0.0094282,-0.0013485,0,0,0.057064,-0.024379,0,-0.0070124,0,0,0,0.031434,-6.3725e-06,0.0094282,-2.461,0.013619,0.027944,7.0545e-07,0.48,0.19,0
0.020899,0.0054555,0.031366,3.7842e-05,0.009421,-0.0012949,0,0,0.057056,-0.024396,0,-0.0067337,0,0,0,0.031419,-1.5656e-05,0.009421,-2.3634,0.013608,0.027938,7.0466e-07,0.49,0.19,0
0.021469,0.0055653,0.031353,2.2432e-05,0.0094127,-0.0012435,0,0,0.057046,-0.024415,0,-0.0064661,0,0,0,0.031403,-2.6898e-05,0.0094127,-2.2696,0.013596,0.027933,7.038e-07,0.5,0.19,0
0.022039,0.0056704,0.031339,7.288e-06,0.009404,-0.0011958,0,0,0.057032,-0.024431,0,-0.0062181,0,0,0,0.031385,-3.8332e-05,0.009404,-2.1828,0.013584,0.027926,7.0286e-07,0.51,0.19,0
0.02261,0.0057711,0.031324,-6.9575e-06,0.0093951,-0.0011528,0,0,0.057015,-0.024445,0,-0.0059947,0,0,0,0.031366,-4.936e-05,0.0093951,-2.1047,0.013571,0.027919,7.0187e-07,0.52,0.19,0
0.02318,0.0058674,0.031308,-2.0345e-05,0.0093864,-0.001115,0,0,0.056997,-0.024458,0,-0.0057978,0,0,0,0.031348,-6.0008e-05,0.0093864,-2.036,0.013558,0.027911,7.0087e-07,0.53,0.19,0
0.02375,0.0059597,0.031293,-3.3209e-05,0.009378,-0.0010821,0,0,0.056979,-0.024469,0,-0.0056267,0,0,0,0.03133,-7.0567e-05,0.009378,-1.9762,0.013546,0.027904,6.9993e-07,0.54,0.19,0
0.024319,0.0060479,0.031279,-4.5953e-05,0.0093698,-0.0010537,0,0,0.056963,-0.024481,0,-0.005479,0,0,0,0.031314,-8.1375e-05,0.0093698,-1.9246,0.013534,0.027898,6.9909e-07,0.55,0.19,0
0.024889,0.0061322,0.031266,-5.8918e-05,0.0093621,-0.0010291,0,0,0.05695,-0.024495,0,-0.0053514,0,0,0,0.0313,-9.2707e-05,0.0093621,-1.8798,0.013523,0.027894,6.9838e-07,0.56,0.19,0
0.025458,0.0062127,0.031255,-7.2338e-05,0.0093547,-0.0010077,0,0,0.05694,-0.02451,0,-0.00524,0,0,0,0.031287,-0.00010473,0.0093547,-1.8407,0.013512,0.027892,6.9781e-07,0.57,0.19,0
0.026028,0.0062894,0.031245,-8.6325e-05,0.0093477,-0.00098867,0,0,0.056934,-0.024528,0,-0.0051411,0,0,0,0.031276,-0.0001175,0.0093477,-1.8057,0.013502,0.027893,6.974e-07,0.58,0.19,0
0.026597,0.0063625,0.031238,-0.00010088,0.009341,-0.00097135,0,0,0.056931,-0.024549,0,-0.005051,0,0,0,0.031268,-0.00013097,0.009341,-1.7738,0.013493,0.027896,6.9712e-07,0.59,0.19,0
0.027166,0.0064321,0.031232,-0.00011593,0.0093347,-0.00095512,0,0,0.056932,-0.024572,0,-0.0049666,0,0,0,0.031261,-0.00014501,0.0093347,-1.7437,0.013483,0.027901,6.9698e-07,0.6,0.19,0
0.027736,0.0064982,0.031227,-0.00013133,0.0093287,-0.00093947,0,0,0.056936,-0.024596,0,-0.0048852,0,0,0,0.031255,-0.00015946,0.0093287,-1.7146,0.013475,0.027908,6.9695e-07,0.61,0.19,0
0.028305,0.0065611,0.031224,-0.00014692,0.0093231,-0.00092398,0,0,0.056942,-0.024622,0,-0.0048047,0,0,0,0.031251,-0.00017411,0.0093231,-1.6857,0.013467,0.027916,6.9701e-07,0.62,0.19,0
0.028875,0.0066208,0.031222,-0.0001625,0.0093177,-0.00090833,0,0,0.05695,-0.024649,0,-0.0047233,0,0,0,0.031248,-0.00018877,0.0093177,-1.6565,0.013459,0.027925,6.9715e-07,0.63,0.19,0
0.029444,0.0066774,0.03122,-0.00017789,0.0093127,-0.00089227,0,0,0.05696,-0.024676,0,-0.0046398,0,0,0,0.031246,-0.00020323,0.0093127,-1.6265,0.013452,0.027934,6.9734e-07,0.64,0.19,0
0.030014,0.006731,0.03122,-0.00019292,0.0093081,-0.00087564,0,0,0.056971,-0.024703,0,-0.0045533,0,0,0,0.031244,-0.00021731,0.0093081,-1.5955,0.013445,0.027944,6.9758e-07,0.65,0.19,0
0.030583,0.0067818,0.03122,-0.00020744,0.0093037,-0.00085831,0,0,0.056982,-0.024729,0,-0.0044632,0,0,0,0.031243,-0.00023087,0.0093037,-1.5633,0.013439,0.027954,6.9783e-07,0.66,0.19,0
0.031153,0.00683,0.03122,-0.00022133,0.0092997,-0.00084024,0,0,0.056994,-0.024755,0,-0.0043692,0,0,0,0.031243,-0.00024377,0.0092997,-1.5297,0.013433,0.027964,6.981e-07,0.67,0.19,0
0.031723,0.0068755,0.031221,-0.00023449,0.009296,-0.00082138,0,0,0.057006,-0.024779,0,-0.0042712,0,0,0,0.031243,-0.00025593,0.009296,-1.4948,0.013428,0.027974,6.9837e-07,0.68,0.19,0
0.032293,0.0069186,0.031222,-0.00024685,0.0092926,-0.00080176,0,0,0.057017,-0.024803,0,-0.0041691,0,0,0,0.031243,-0.00026727,0.0092926,-1.4585,0.013423,0.027983,6.9863e-07,0.69,0.19,0
0.032864,0.0069593,0.031223,-0.00025836,0.0092895,-0.00078138,0,0,0.057028,-0.024824,0,-0.0040632,0,0,0,0.031243,-0.00027775,0.0092895,-1.4209,0.013418,0.027991,6.9888e-07,0.7,0.19,0
0.033434,0.0069978,0.031225,-0.00026901,0.0092867,-0.00076029,0,0,0.057039,-0.024845,0,-0.0039535,0,0,0,0.031243,-0.00028736,0.0092867,-1.3821,0.013414,0.027999,6.9912e-07,0.71,0.19,0
0.034004,0.007034,0.031226,-0.00027878,0.0092842,-0.00073853,0,0,0.057049,-0.024864,0,-0.0038403,0,0,0,0.031243,-0.00029609,0.0092842,-1.3422,0.01341,0.028006,6.9934e-07,0.72,0.19,0
0.034575,0.0070683,0.031227,-0.00028769,0.0092819,-0.00071615,0,0,0.057058,-0.024881,0,-0.003724,0,0,0,0.031244,-0.00030397,0.0092819,-1.3011,0.013407,0.028013,6.9954e-07,0.73,0.19,0
0.035146,0.0071006,0.031229,-0.00029577,0.0092799,-0.0006932,0,0,0.057067,-0.024897,0,-0.0036046,0,0,0,0.031244,-0.00031102,0.0092799,-1.2591,0.013404,0.028019,6.9973e-07,0.74,0.19,0
0.035716,0.0071309,0.03123,-0.00030305,0.0092781,-0.00066974,0,0,0.057075,-0.024911,0,-0.0034826,0,0,0,0.031244,-0.00031728,0.0092781,-1.2162,0.013402,0.028024,6.999e-07,0.75,0.19,0
0.036287,0.0071595,0.031232,-0.00030959,0.0092766,-0.0006458,0,0,0.057083,-0.024924,0,-0.0033582,0,0,0,0.031245,-0.00032281,0.0092766,-1.1725,0.013399,0.028029,7.0005e-07,0.76,0.19,0
0.036858,0.0071864,0.031233,-0.00031541,0.0092752,-0.00062144,0,0,0.05709,-0.024936,0,-0.0032315,0,0,0,0.031245,-0.00032766,0.0092752,-1.128,0.013398,0.028033,7.0019e-07,0.77,0.19,0
0.037429,0.0072116,0.031234,-0.0003206,0.0092741,-0.0005967,0,0,0.057096,-0.024946,0,-0.0031028,0,0,0,0.031246,-0.00033188,0.0092741,-1.0829,0.013396,0.028037,7.0032e-07,0.78,0.19,0
0.038,0.0072353,0.031236,-0.00032518,0.0092731,-0.0005716,0,0,0.057103,-0.024956,0,-0.0029723,0,0,0,0.031246,-0.00033554,0.0092731,-1.0372,0.013395,0.02804,7.0043e-07,0.79,0.19,0
0.038571,0.0072574,0.031237,-0.00032922,0.0092723,-0.00054619,0,0,0.057108,-0.024964,0,-0.0028402,0,0,0,0.031247,-0.00033868,0.0092723,-0.991,0.013393,0.028043,7.0054e-07,0.8,0.19,0
0.039142,0.0072781,0.031238,-0.00033278,0.0092717,-0.00052049,0,0,0.057114,-0.024972,0,-0.0027066,0,0,0,0.031247,-0.00034137,0.0092717,-0.94426,0.013392,0.028046,7.0064e-07,0.81,0.19,0
0.039713,0.0072974,0.03124,-0.00033589,0.0092712,-0.00049453,0,0,0.057119,-0.024978,0,-0.0025716,0,0,0,0.031248,-0.00034365,0.0092712,-0.89706,0.013392,0.028048,7.0073e-07,0.82,0.19,0
0.040284,0.0073153,0.031241,-0.00033862,0.0092708,-0.00046833,0,0,0.057123,-0.024984,0,-0.0024353,0,0,0,0.031248,-0.00034557,0.0092708,-0.84945,0.013391,0.02805,7.0081e-07,0.83,0.19,0
0.040856,0.0073319,0.031243,-0.00034099,0.0092705,-0.0004419,0,0,0.057128,-0.02499,0,-0.0022979,0,0,0,0.031249,-0.00034719,0.0092705,-0.80144,0.013391,0.028052,7.0089e-07,0.84,0.19,0
0.041427,0.0073474,0.031244,-0.00034306,0.0092703,-0.00041527,0,0,0.057132,-0.024995,0,-0.0021594,0,0,0,0.03125,-0.00034853,0.0092703,-0.75308,0.01339,0.028054,7.0097e-07,0.85,0.19,0
0.041998,0.0073616,0.031245,-0.00034486,0.0092702,-0.00038845,0,0,0.057136,-0.024999,0,-0.0020199,0,0,0,0.03125,-0.00034965,0.0092702,-0.70439,0.01339,0.028055,7.0104e-07,0.86,0.19,0
0.04257,0.0073746,0.031247,-0.00034642,0.0092701,-0.00036145,0,0,0.057139,-0.025003,0,-0.0018795,0,0,0,0.031251,-0.00035056,0.0092701,-0.65539,0.01339,0.028057,7.0111e-07,0.87,0.19,0
0.043141,0.0073866,0.031248,-0.00034777,0.0092701,-0.00033429,0,0,0.057143,-0.025007,0,-0.0017383,0,0,0,0.031252,-0.00035131,0.0092701,-0.6061,0.01339,0.028058,7.0118e-07,0.88,0.19,0
0.043713,0.0073974,0.031249,-0.00034893,0.0092702,-0.00030697,0,0,0.057146,-0.02501,0,-0.0015963,0,0,0,0.031252,-0.00035192,0.0092702,-0.55655,0.01339,0.028059,7.0124e-07,0.89,0.19,0
0.044284,0.0074072,0.031251,-0.00034993,0.0092702,-0.00027952,0,0,0.057149,-0.025012,0,-0.0014535,0,0,0,0.031253,-0.00035242,0.0092702,-0.50676,0.01339,0.02806,7.013e-07,0.9,0.19,0
0.044856,0.007416,0.031252,-0.00035079,0.0092703,-0.00025194,0,0,0.057152,-0.025015,0,-0.0013101,0,0,0,0.031254,-0.00035281,0.0092703,-0.45674,0.01339,0.028061,7.0135e-07,0.91,0.19,0
0.045427,0.0074238,0.031253,-0.00035152,0.0092704,-0.00022425,0,0,0.057154,-0.025017,0,-0.0011661,0,0,0,0.031254,-0.00035312,0.0092704,-0.40651,0.013391,0.028062,7.014e-07,0.92,0.19,0
0.045999,0.0074306,0.031254,-0.00035214,0.0092705,-0.00019645,0,0,0.057157,-0.025019,0,-0.0010215,0,0,0,0.031255,-0.00035337,0.0092705,-0.35611,0.013391,0.028063,7.0145e-07,0.93,0.19,0
0.04657,0.0074365,0.031255,-0.00035265,0.0092706,-0.00016856,0,0,0.057159,-0.025021,0,-0.0008765,0,0,0,0.031256,-0.00035356,0.0092706,-0.30554,0.013391,0.028063,7.0149e-07,0.94,0.19,0
0.047142,0.0074414,0.031255,-0.00035307,0.0092707,-0.00014059,0,0,0.05716,-0.025022,0,-0.00073106,0,0,0,0.031256,-0.00035371,0.0092707,-0.25483,0.013391,0.028064,7.0152e-07,0.95,0.19,0
0.047713,0.0074454,0.031256,-0.00035341,0.0092708,-0.00011255,0,0,0.057162,-0.025023,0,-0.00058527,0,0,0,0.031256,-0.00035382,0.0092708,-0.20401,0.013391,0.028064,7.0155e-07,0.96,0.19,0
0.048285,0.0074485,0.031257,-0.00035366,0.0092709,-8.4461e-05,0,0,0.057163,-0.025024,0,-0.0004392,0,0,0,0.031257,-0.0003539,0.0092709,-0.15309,0.013391,0.028065,7.0158e-07,0.97,0.19,0
0.048857,0.0074507,0.031257,-0.00035384,0.0092709,-5.633e-05,0,0,0.057164,-0.025024,0,-0.00029292,0,0,0,0.031257,-0.00035396,0.0092709,-0.1021,0.013391,0.028065,7.0159e-07,0.98,0.19,0
0.049428,0.0074521,0.031257,-0.00035395,0.009271,-2.6052e-05,0,0,0.057164,-0.025025,0,-0.00013547,0,0,0,0.031257,-0.00035399,0.009271,-0.047219,0.013391,0.028065,7.016e-07,0.99,0.19,0
0.049714,0.0074525,0.031257,-0.00035399,0.009271,-9.8472e-06,0,0,0.057164,-0.025025,0,-5.1205e-05,0,0,0,0.031257,-0.000354,0.009271,-0.017848,0.013391,0.028065,7.0161e-07,1,0.19,0
0.00023187,0.00015324,0.031195,0.013149,0.013303,0.0058799,0,0,0.046518,-0.00040148,0,0.030576,0,0,0,0.032943,0.0114,0.013303,16.55,0.019215,0.020658,4.3991e-07,0,0.2,0
0.00046518,0.00030018,0.031223,0.012933,0.013247,0.0058112,0,0,0.046739,-0.000817,0,0.030218,0,0,0,0.032917,0.011239,0.013247,16.224,0.019134,0.020747,4.4429e-07,0.01,0.2,0
0.00093478,0.00058172,0.031328,0.012507,0.01315,0.0056242,0,0,0.047262,-0.0016735,0,0.029246,0,0,0,0.032885,0.01095,0.01315,15.442,0.018995,0.020922,4.5302e-07,0.02,0.2,0
0.0014104,0.00083884,0.03148,0.012075,0.013066,0.0053935,0,0,0.047876,-0.0025788,0,0.028046,0,0,0,0.032883,0.010672,0.013066,14.546,0.018874,0.021116,4.6285e-07,0.03,0.2,0
0.0018923,0.0010717,0.031636,0.011616,0.012976,0.0051666,0,0,0.048518,-0.0035358,0,0.026867,0,0,0,0.032895,0.010357,0.012976,13.662,0.018742,0.02135,4.748e-07,0.04,0.2,0
0.0023808,0.0012799,0.031807,0.011121,0.012878,0.0049302,0,0,0.049214,-0.0045687,0,0.025637,0,0,0,0.032926,0.010002,0.012878,12.757,0.018602,0.021631,4.8919e-07,0.05,0.2,0
0.0028766,0.0014624,0.032011,0.010567,0.012774,0.0046804,0,0,0.050018,-0.0057366,0,0.024338,0,0,0,0.032994,0.0095847,0.012774,11.809,0.018451,0.02199,5.0786e-07,0.06,0.2,0
0.0033811,0.0016184,0.032272,0.0099235,0.012659,0.0044365,0,0,0.050994,-0.0071113,0,0.02307,0,0,0,0.033127,0.0090685,0.012659,10.851,0.018285,0.022481,5.3412e-07,0.07,0.2,0
0.0038965,0.0017482,0.032577,0.0091902,0.01253,0.0042154,0,0,0.052122,-0.0086841,0,0.02192,0,0,0,0.033322,0.0084452,0.01253,9.946,0.018099,0.023109,5.6861e-07,0.08,0.2,0
0.0044236,0.0018499,0.033301,0.0084907,0.012537,0.0041185,0,0,0.052718,-0.010202,0,0.021002,0,0,0,0.033975,0.0078166,0.012537,9.2455,0.01811,0.024148,6.4985e-07,0.09,0.2,0
0.0049545,0.0019239,0.034503,0.0078816,0.012716,0.003981,0,0,0.050691,-0.011066,0,0.019104,0,0,0,0.035108,0.0072775,0.012716,8.4362,0.018367,0.025551,7.862e-07,0.1,0.2,0
0.0054503,0.0019887,0.03482,0.0071732,0.012598,0.0033277,0,0,0.044634,-0.010739,0,0.014549,0,0,0,0.035265,0.0067286,0.012598,6.8662,0.018197,0.026102,8.4938e-07,0.11,0.2,0
0.0058618,0.0020674,0.034157,0.0064301,0.012176,0.0023099,0,0,0.037085,-0.0096319,0,0.0089426,0,0,0,0.034401,0.0061866,0.012176,4.8556,0.017588,0.025748,7.9922e-07,0.12,0.2,0
0.0061954,0.0021595,0.034391,0.0061637,0.012166,0.0015329,0,0,0.032069,-0.0086723,0,0.0050326,0,0,0,0.034501,0.0060539,0.012166,3.2442,0.017574,0.025938,7.7069e-07,0.13,0.2,0
0.0064993,0.0022528,0.035465,0.0062589,0.012517,0.001122,0,0,0.030425,-0.008311,0,0.0031212,0,0,0,0.035516,0.0062079,0.012517,2.2538,0.01808,0.02672,8.0717e-07,0.14,0.2,0
0.0068021,0.0023442,0.03603,0.0059686,0.0126,0.00083346,0,0,0.03046,-0.0086204,0,0.002167,0,0,0,0.036056,0.0059427,0.0126,1.596,0.0182,0.0274,8.4976e-07,0.15,0.2,0
0.0071085,0.0024321,0.036089,0.0053644,0.012436,0.00054648,0,0,0.030749,-0.009193,0,0.0014208,0,0,0,0.0361,0.0053528,0.012436,1.0245,0.017963,0.02789,8.7642e-07,0.16,0.2,0
0.007417,0.0025125,0.03604,0.0049335,0.012292,0.00026898,0,0,0.030872,-0.0095661,0,0.00069936,0,0,0,0.036044,0.0049297,0.012292,0.49739,0.017755,0.028164,8.8845e-07,0.17,0.2,0
0.007726,0.0025849,0.035968,0.0046314,0.01218,4.6916e-05,0,0,0.030925,-0.0098129,0,0.00012198,0,0,0,0.035969,0.0046308,0.01218,0.086997,0.017593,0.028328,8.9397e-07,0.18,0.2,0
0.0080355,0.0026513,0.035915,0.0042772,0.012058,-0.00012001,0,0,0.031014,-0.010114,0,-0.00031204,0,0,0,0.035916,0.0042764,0.012058,-0.21572,0.017417,0.028555,9.0314e-07,0.19,0.2,0
0.0083463,0.0027128,0.035881,0.00389,0.011931,-0.00029222,0,0,0.031134,-0.010454,0,-0.00075978,0,0,0,0.035884,0.0038868,0.011931,-0.52149,0.017234,0.02883,9.1516e-07,0.2,0.2,0
0.0086582,0.0027692,0.035854,0.0035604,0.011824,-0.00047464,0,0,0.031239,-0.010743,0,-0.0012341,0,0,0,0.035861,0.0035529,0.011824,-0.84046,0.01708,0.02907,9.2568e-07,0.21,0.2,0
0.008971,0.002821,0.035814,0.0032935,0.011732,-0.00063604,0,0,0.031307,-0.010971,0,-0.0016537,0,0,0,0.035827,0.0032807,0.011732,-1.1191,0.016947,0.029251,9.3282e-07,0.22,0.2,0
0.0092844,0.002869,0.035759,0.0030399,0.01164,-0.00075818,0,0,0.031355,-0.01118,0,-0.0019713,0,0,0,0.035776,0.0030221,0.01164,-1.3261,0.016813,0.029408,9.38e-07,0.23,0.2,0
0.0095981,0.0029142,0.035698,0.0027654,0.011539,-0.00084533,0,0,0.031407,-0.011406,0,-0.0021979,0,0,0,0.03572,0.0027436,0.011539,-1.4689,0.016668,0.029577,9.4331e-07,0.24,0.2,0
0.0099125,0.0029574,0.035644,0.0024576,0.01143,-0.00090933,0,0,0.031477,-0.011665,0,-0.0023643,0,0,0,0.035669,0.0024326,0.01143,-1.568,0.016511,0.029775,9.4995e-07,0.25,0.2,0
0.010228,0.0029991,0.035596,0.0021112,0.011312,-0.00096333,0,0,0.031569,-0.011961,0,-0.0025047,0,0,0,0.035624,0.0020835,0.011312,-1.6461,0.01634,0.03001,9.5832e-07,0.26,0.2,0
0.010544,0.0030392,0.035551,0.0017285,0.011184,-0.0010217,0,0,0.031677,-0.012292,0,-0.0026565,0,0,0,0.035582,0.0016976,0.011184,-1.7283,0.016154,0.030277,9.6786e-07,0.27,0.2,0
0.010861,0.0030776,0.035497,0.0013377,0.01105,-0.0010931,0,0,0.031781,-0.012627,0,-0.002842,0,0,0,0.035532,0.0013026,0.01105,-1.8303,0.015962,0.030545,9.7685e-07,0.28,0.2,0
0.011179,0.003114,0.035441,0.00099019,0.010929,-0.0011616,0,0,0.031865,-0.012921,0,-0.00302,0,0,0,0.03548,0.00095096,0.010929,-1.9286,0.015787,0.030778,9.8393e-07,0.29,0.2,0
0.011499,0.0031489,0.035407,0.00068404,0.010827,-0.0011941,0,0,0.031953,-0.013186,0,-0.0031047,0,0,0,0.035448,0.00064295,0.010827,-1.9674,0.015639,0.030994,9.9108e-07,0.3,0.2,0
0.011819,0.0031829,0.035411,0.00031729,0.010718,-0.0011957,0,0,0.0321,-0.013521,0,-0.0031089,0,0,0,0.035451,0.00027651,0.010718,-1.9494,0.015482,0.031289,1.0029e-06,0.31,0.2,0
0.01214,0.0032155,0.035446,-0.00014165,0.010591,-0.0012351,0,0,0.032311,-0.013953,0,-0.0032112,0,0,0,0.035489,-0.00018467,0.010591,-1.9846,0.015299,0.031691,1.0203e-06,0.32,0.2,0
0.012465,0.0032453,0.03547,-0.00046844,0.010501,-0.0013084,0,0,0.03246,-0.01426,0,-0.0034019,0,0,0,0.035518,-0.00051646,0.010501,-2.0825,0.015167,0.031982,1.0329e-06,0.33,0.2,0
0.01279,0.0032737,0.035414,-0.00059468,0.010446,-0.0013452,0,0,0.032459,-0.014353,0,-0.0034975,0,0,0,0.035466,-0.00064596,0.010446,-2.138,0.015089,0.03204,1.0322e-06,0.34,0.2,0
0.013114,0.0033064,0.0349,-0.0010488,0.010155,-0.0013428,0,0,0.032825,-0.014891,0,-0.0036794,0,0,0,0.034954,-0.0011032,0.010155,-2.1719,0.014669,0.031954,1.0115e-06,0.35,0.2,0
0.013444,0.0033464,0.033958,-0.0018464,0.0096334,-0.0014127,0,0,0.035161,-0.016635,0,-0.0045213,0,0,0,0.034025,-0.0019138,0.0096334,-2.3442,0.013915,0.031781,9.9548e-07,0.36,0.2,0
0.013813,0.0034052,0.033882,-0.0023489,0.0094599,-0.0016961,0,0,0.041286,-0.019918,0,-0.0064425,0,0,0,0.03398,-0.0024465,0.0094599,-2.7448,0.013664,0.032171,1.0596e-06,0.37,0.2,0
0.014273,0.003515,0.034644,-0.0024223,0.0096665,-0.0020644,0,0,0.050241,-0.024167,0,-0.0088833,0,0,0,0.034773,-0.0025518,0.0096665,-3.2071,0.013963,0.032961,1.1424e-06,0.38,0.2,0
0.014834,0.0036874,0.034441,-0.0020036,0.0097313,-0.0021187,0,0,0.057541,-0.02715,0,-0.010001,0,0,0,0.034571,-0.0021333,0.0097313,-3.3236,0.014056,0.032443,1.0731e-06,0.39,0.2,0
0.015439,0.0038858,0.033364,-0.0012971,0.0096201,-0.0018384,0,0,0.060302,-0.02766,0,-0.0092943,0,0,0,0.033466,-0.0013988,0.0096201,-3.0312,0.013896,0.030868,9.1182e-07,0.4,0.2,0
0.016044,0.0040744,0.032693,-0.00079148,0.0095703,-0.0016196,0,0,0.060118,-0.026941,0,-0.0084219,0,0,0,0.032773,-0.00087242,0.0095703,-2.7747,0.013824,0.029829,8.2318e-07,0.41,0.2,0
0.016641,0.0042496,0.032418,-0.00045838,0.009588,-0.0015391,0,0,0.059359,-0.026121,0,-0.0080034,0,0,0,0.032492,-0.00053162,0.009588,-2.6801,0.013849,0.029305,7.9307e-07,0.42,0.2,0
0.017231,0.0044144,0.032208,-0.00020447,0.009601,-0.0014958,0,0,0.058778,-0.025494,0,-0.0077781,0,0,0,0.032277,-0.00027398,0.009601,-2.64,0.013868,0.028908,7.7082e-07,0.43,0.2,0
0.017817,0.0045684,0.032064,-6.6604e-05,0.0095993,-0.0014802,0,0,0.058409,-0.025131,0,-0.0076971,0,0,0,0.032133,-0.00013491,0.0095993,-2.6341,0.013866,0.028668,7.5695e-07,0.44,0.2,0
0.018399,0.004712,0.031974,-7.9301e-06,0.0095898,-0.0014591,0,0,0.058199,-0.024954,0,-0.0075873,0,0,0,0.032041,-7.4499e-05,0.0095898,-2.6081,0.013852,0.028538,7.4892e-07,0.45,0.2,0
0.018981,0.0048468,0.031914,9.886e-06,0.0095771,-0.0014233,0,0,0.058075,-0.024875,0,-0.0074009,0,0,0,0.031977,-5.3595e-05,0.0095771,-2.5503,0.013834,0.028465,7.4393e-07,0.46,0.2,0
0.019561,0.0049739,0.031866,8.0064e-06,0.0095622,-0.0013759,0,0,0.05799,-0.024841,0,-0.0071544,0,0,0,0.031925,-5.1415e-05,0.0095622,-2.4692,0.013812,0.028417,7.4022e-07,0.47,0.2,0
0.02014,0.0050945,0.031822,-2.3675e-06,0.0095459,-0.0013225,0,0,0.057918,-0.024826,0,-0.006877,0,0,0,0.031877,-5.7342e-05,0.0095459,-2.3764,0.013789,0.028379,7.3698e-07,0.48,0.2,0
0.020719,0.0052094,0.03178,-1.4997e-05,0.0095294,-0.001268,0,0,0.057851,-0.024815,0,-0.0065934,0,0,0,0.03183,-6.5587e-05,0.0095294,-2.2809,0.013765,0.028344,7.3392e-07,0.49,0.2,0
0.021297,0.0053192,0.031738,-2.6885e-05,0.0095133,-0.0012157,0,0,0.057784,-0.024805,0,-0.0063215,0,0,0,0.031785,-7.3435e-05,0.0095133,-2.1892,0.013741,0.028309,7.3092e-07,0.5,0.2,0
0.021875,0.0054243,0.031697,-3.7098e-05,0.0094981,-0.0011678,0,0,0.057718,-0.024791,0,-0.0060728,0,0,0,0.03174,-8.0097e-05,0.0094981,-2.1053,0.013719,0.028275,7.2801e-07,0.51,0.2,0
0.022452,0.0055249,0.031658,-4.5832e-05,0.0094837,-0.0011256,0,0,0.057654,-0.024777,0,-0.0058531,0,0,0,0.031698,-8.581e-05,0.0094837,-2.0313,0.013699,0.028243,7.2524e-07,0.52,0.2,0
0.023028,0.0056213,0.031622,-5.376e-05,0.0094703,-0.0010892,0,0,0.057593,-0.024763,0,-0.005664,0,0,0,0.031659,-9.1223e-05,0.0094703,-1.9676,0.013679,0.028212,7.2268e-07,0.53,0.2,0
0.023604,0.0057136,0.031588,-6.1641e-05,0.0094579,-0.0010584,0,0,0.057538,-0.024751,0,-0.0055038,0,0,0,0.031623,-9.7038e-05,0.0094579,-1.9136,0.013661,0.028185,7.2036e-07,0.54,0.2,0
0.024179,0.0058018,0.031558,-7.0121e-05,0.0094463,-0.0010325,0,0,0.05749,-0.024743,0,-0.005369,0,0,0,0.031591,-0.00010382,0.0094463,-1.8681,0.013645,0.028162,7.1834e-07,0.55,0.2,0
0.024753,0.005886,0.031531,-7.9647e-05,0.0094354,-0.0010106,0,0,0.057448,-0.024739,0,-0.0052553,0,0,0,0.031563,-0.00011195,0.0094354,-1.8296,0.013629,0.028143,7.1661e-07,0.56,0.2,0
0.025328,0.0059664,0.031508,-9.0455e-05,0.0094252,-0.00099188,0,0,0.057415,-0.024741,0,-0.0051578,0,0,0,0.031539,-0.00012158,0.0094252,-1.7964,0.013614,0.02813,7.1518e-07,0.57,0.2,0
0.025902,0.006043,0.031488,-0.0001026,0.0094156,-0.0009754,0,0,0.057388,-0.024747,0,-0.0050721,0,0,0,0.031518,-0.0001327,0.0094156,-1.767,0.0136,0.02812,7.1402e-07,0.58,0.2,0
0.026475,0.006116,0.031471,-0.000116,0.0094065,-0.00096041,0,0,0.057368,-0.024759,0,-0.0049941,0,0,0,0.0315,-0.00014518,0.0094065,-1.7401,0.013587,0.028114,7.1312e-07,0.59,0.2,0
0.027049,0.0061853,0.031457,-0.00013045,0.009398,-0.00094625,0,0,0.057354,-0.024774,0,-0.0049205,0,0,0,0.031485,-0.00015878,0.009398,-1.7145,0.013575,0.028112,7.1243e-07,0.6,0.2,0
0.027623,0.0062513,0.031445,-0.00014572,0.0093899,-0.00093239,0,0,0.057344,-0.024793,0,-0.0048484,0,0,0,0.031473,-0.00017322,0.0093899,-1.6892,0.013563,0.028112,7.1192e-07,0.61,0.2,0
0.028196,0.0063139,0.031436,-0.00016152,0.0093823,-0.0009184,0,0,0.057339,-0.024814,0,-0.0047757,0,0,0,0.031462,-0.0001882,0.0093823,-1.6636,0.013552,0.028115,7.1156e-07,0.62,0.2,0
0.028769,0.0063733,0.031428,-0.00017758,0.009375,-0.00090399,0,0,0.057337,-0.024837,0,-0.0047008,0,0,0,0.031454,-0.00020342,0.009375,-1.6371,0.013542,0.028119,7.1132e-07,0.63,0.2,0
0.029343,0.0064297,0.031421,-0.00019362,0.0093682,-0.00088893,0,0,0.057337,-0.024861,0,-0.0046224,0,0,0,0.031446,-0.0002186,0.0093682,-1.6094,0.013532,0.028125,7.1117e-07,0.64,0.2,0
0.029916,0.0064831,0.031415,-0.00020943,0.0093618,-0.00087308,0,0,0.05734,-0.024885,0,-0.00454,0,0,0,0.03144,-0.00023352,0.0093618,-1.5803,0.013523,0.028131,7.1109e-07,0.65,0.2,0
0.03049,0.0065336,0.031411,-0.00022478,0.0093558,-0.00085637,0,0,0.057343,-0.02491,0,-0.0044531,0,0,0,0.031434,-0.00024795,0.0093558,-1.5495,0.013514,0.028137,7.1105e-07,0.66,0.2,0
0.031063,0.0065815,0.031407,-0.00023953,0.0093502,-0.00083875,0,0,0.057347,-0.024933,0,-0.0043615,0,0,0,0.031429,-0.00026175,0.0093502,-1.5172,0.013506,0.028144,7.1104e-07,0.67,0.2,0
0.031636,0.0066268,0.031403,-0.00025353,0.0093449,-0.00082025,0,0,0.057352,-0.024956,0,-0.0042653,0,0,0,0.031424,-0.00027478,0.0093449,-1.4833,0.013498,0.02815,7.1104e-07,0.68,0.2,0
0.03221,0.0066697,0.0314,-0.0002667,0.00934,-0.00080087,0,0,0.057356,-0.024977,0,-0.0041645,0,0,0,0.03142,-0.00028695,0.00934,-1.4479,0.013491,0.028156,7.1105e-07,0.69,0.2,0
0.032784,0.0067102,0.031397,-0.00027899,0.0093355,-0.00078068,0,0,0.057361,-0.024998,0,-0.0040595,0,0,0,0.031417,-0.00029822,0.0093355,-1.411,0.013485,0.028162,7.1105e-07,0.7,0.2,0
0.033357,0.0067484,0.031395,-0.00029034,0.0093313,-0.00075973,0,0,0.057365,-0.025016,0,-0.0039506,0,0,0,0.031413,-0.00030856,0.0093313,-1.3728,0.013479,0.028167,7.1105e-07,0.71,0.2,0
0.033931,0.0067846,0.031392,-0.00030078,0.0093275,-0.00073807,0,0,0.057369,-0.025033,0,-0.003838,0,0,0,0.03141,-0.00031796,0.0093275,-1.3334,0.013473,0.028172,7.1104e-07,0.72,0.2,0
0.034505,0.0068186,0.03139,-0.00031029,0.009324,-0.00071578,0,0,0.057372,-0.025049,0,-0.0037221,0,0,0,0.031406,-0.00032645,0.009324,-1.2929,0.013468,0.028176,7.1102e-07,0.73,0.2,0
0.035078,0.0068508,0.031388,-0.00031891,0.0093208,-0.00069291,0,0,0.057375,-0.025063,0,-0.0036031,0,0,0,0.031403,-0.00033406,0.0093208,-1.2513,0.013463,0.028179,7.1099e-07,0.74,0.2,0
0.035652,0.006881,0.031386,-0.00032669,0.0093179,-0.00066951,0,0,0.057378,-0.025076,0,-0.0034814,0,0,0,0.0314,-0.00034083,0.0093179,-1.2089,0.013459,0.028182,7.1095e-07,0.75,0.2,0
0.036226,0.0069095,0.031384,-0.00033367,0.0093152,-0.00064564,0,0,0.05738,-0.025087,0,-0.0033573,0,0,0,0.031398,-0.00034681,0.0093152,-1.1657,0.013455,0.028184,7.1091e-07,0.76,0.2,0
0.0368,0.0069362,0.031383,-0.0003399,0.0093129,-0.00062135,0,0,0.057382,-0.025097,0,-0.003231,0,0,0,0.031395,-0.00035207,0.0093129,-1.1217,0.013452,0.028186,7.1085e-07,0.77,0.2,0
0.037374,0.0069614,0.031381,-0.00034544,0.0093108,-0.00059668,0,0,0.057383,-0.025106,0,-0.0031027,0,0,0,0.031393,-0.00035667,0.0093108,-1.0771,0.013449,0.028188,7.1079e-07,0.78,0.2,0
0.037947,0.0069849,0.03138,-0.00035036,0.0093089,-0.00057166,0,0,0.057385,-0.025114,0,-0.0029726,0,0,0,0.03139,-0.00036066,0.0093089,-1.0318,0.013446,0.028189,7.1073e-07,0.79,0.2,0
0.038521,0.007007,0.031379,-0.0003547,0.0093072,-0.00054632,0,0,0.057386,-0.025121,0,-0.0028409,0,0,0,0.031388,-0.00036412,0.0093072,-0.98604,0.013444,0.02819,7.1067e-07,0.8,0.2,0
0.039095,0.0070276,0.031378,-0.00035853,0.0093057,-0.0005207,0,0,0.057387,-0.025127,0,-0.0027076,0,0,0,0.031386,-0.00036708,0.0093057,-0.93974,0.013442,0.02819,7.1061e-07,0.81,0.2,0
0.039669,0.0070468,0.031377,-0.0003619,0.0093044,-0.00049481,0,0,0.057388,-0.025133,0,-0.002573,0,0,0,0.031384,-0.00036962,0.0093044,-0.89298,0.01344,0.028191,7.1055e-07,0.82,0.2,0
0.040243,0.0070647,0.031376,-0.00036486,0.0093033,-0.00046868,0,0,0.057389,-0.025137,0,-0.0024371,0,0,0,0.031383,-0.00037179,0.0093033,-0.84579,0.013438,0.028191,7.1049e-07,0.83,0.2,0
0.040817,0.0070813,0.031375,-0.00036745,0.0093024,-0.00044232,0,0,0.05739,-0.025142,0,-0.0023,0,0,0,0.031381,-0.00037362,0.0093024,-0.79819,0.013437,0.028191,7.1044e-07,0.84,0.2,0
0.041391,0.0070967,0.031375,-0.00036972,0.0093015,-0.00041574,0,0,0.05739,-0.025145,0,-0.0021619,0,0,0,0.03138,-0.00037518,0.0093015,-0.75021,0.013435,0.028191,7.1039e-07,0.85,0.2,0
0.041965,0.0071108,0.031374,-0.00037171,0.0093008,-0.00038897,0,0,0.057391,-0.025148,0,-0.0020226,0,0,0,0.031379,-0.00037648,0.0093008,-0.70188,0.013434,0.028192,7.1034e-07,0.86,0.2,0
0.042538,0.0071239,0.031374,-0.00037344,0.0093002,-0.000362,0,0,0.057392,-0.025151,0,-0.0018824,0,0,0,0.031378,-0.00037758,0.0093002,-0.65322,0.013434,0.028192,7.1031e-07,0.87,0.2,0
0.043112,0.0071358,0.031374,-0.00037495,0.0092997,-0.00033487,0,0,0.057393,-0.025154,0,-0.0017413,0,0,0,0.031377,-0.0003785,0.0092997,-0.60424,0.013433,0.028192,7.1027e-07,0.88,0.2,0
0.043686,0.0071466,0.031374,-0.00037627,0.0092992,-0.00030757,0,0,0.057394,-0.025156,0,-0.0015993,0,0,0,0.031377,-0.00037926,0.0092992,-0.55497,0.013432,0.028192,7.1024e-07,0.89,0.2,0
0.04426,0.0071564,0.031374,-0.00037741,0.0092989,-0.00028011,0,0,0.057394,-0.025158,0,-0.0014566,0,0,0,0.031376,-0.00037989,0.0092989,-0.50543,0.013432,0.028192,7.1022e-07,0.9,0.2,0
0.044834,0.0071651,0.031374,-0.0003784,0.0092986,-0.00025252,0,0,0.057395,-0.02516,0,-0.0013131,0,0,0,0.031376,-0.00038042,0.0092986,-0.45563,0.013431,0.028192,7.102e-07,0.91,0.2,0
0.045408,0.0071729,0.031374,-0.00037925,0.0092983,-0.0002248,0,0,0.057396,-0.025162,0,-0.001169,0,0,0,0.031375,-0.00038085,0.0092983,-0.40561,0.013431,0.028192,7.1019e-07,0.92,0.2,0
0.045982,0.0071797,0.031374,-0.00037997,0.0092982,-0.00019696,0,0,0.057397,-0.025163,0,-0.0010242,0,0,0,0.031375,-0.0003812,0.0092982,-0.35538,0.013431,0.028192,7.1018e-07,0.93,0.2,0
0.046556,0.0071855,0.031374,-0.00038057,0.009298,-0.00016902,0,0,0.057397,-0.025164,0,-0.00087891,0,0,0,0.031375,-0.00038148,0.009298,-0.30496,0.01343,0.028192,7.1017e-07,0.94,0.2,0
0.04713,0.0071905,0.031374,-0.00038107,0.0092979,-0.00014099,0,0,0.057398,-0.025165,0,-0.00073315,0,0,0,0.031375,-0.00038171,0.0092979,-0.25438,0.01343,0.028192,7.1016e-07,0.95,0.2,0
0.047704,0.0071945,0.031374,-0.00038147,0.0092978,-0.00011288,0,0,0.057398,-0.025166,0,-0.000587,0,0,0,0.031375,-0.00038189,0.0092978,-0.20367,0.01343,0.028192,7.1016e-07,0.96,0.2,0
0.048278,0.0071976,0.031374,-0.00038178,0.0092977,-8.4717e-05,0,0,0.057399,-0.025167,0,-0.00044053,0,0,0,0.031374,-0.00038202,0.0092977,-0.15285,0.01343,0.028192,7.1015e-07,0.97,0.2,0
0.048852,0.0071998,0.031374,-0.000382,0.0092977,-5.6504e-05,0,0,0.057399,-0.025167,0,-0.00029382,0,0,0,0.031374,-0.00038211,0.0092977,-0.10195,0.01343,0.028192,7.1015e-07,0.98,0.2,0
0.049426,0.0072011,0.031374,-0.00038212,0.0092977,-2.6145e-05,0,0,0.057399,-0.025167,0,-0.00013595,0,0,0,0.031374,-0.00038216,0.0092977,-0.047171,0.01343,0.028192,7.1015e-07,0.99,0.2,0
0.049713,0.0072015,0.031374,-0.00038217,0.0092976,-9.9014e-06,0,0,0.057399,-0.025167,0,-5.1487e-05,0,0,0,0.031374,-0.00038218,0.0092976,-0.017864,0.01343,0.028192,7.1015e-07,1,0.2,0
0.00023753,0.00014894,0.031953,0.013442,0.013618,0.0057155,0,0,0.04767,-0.00045995,0,0.02972,0,0,0,0.033578,0.011817,0.013618,15.853,0.019671,0.020919,4.5845e-07,0,0.21,0
0.0004767,0.00029151,0.031986,0.013201,0.013556,0.0056471,0,0,0.047917,-0.00092272,0,0.029365,0,0,0,0.033556,0.011631,0.013556,15.517,0.019581,0.021029,4.6425e-07,0.01,0.21,0
0.00095834,0.00056413,0.032105,0.012741,0.013454,0.0054608,0,0,0.048493,-0.0018535,0,0.028396,0,0,0,0.033543,0.011302,0.013454,14.723,0.019433,0.021248,4.7584e-07,0.02,0.21,0
0.0014466,0.00081201,0.032278,0.012297,0.013372,0.0052308,0,0,0.049154,-0.0027964,0,0.0272,0,0,0,0.033569,0.011006,0.013372,13.83,0.019316,0.021478,4.8832e-07,0.03,0.21,0
0.0019414,0.0010353,0.032449,0.011842,0.013287,0.0050031,0,0,0.049821,-0.0037587,0,0.026016,0,0,0,0.033604,0.010687,0.013287,12.963,0.019193,0.021735,5.0221e-07,0.04,0.21,0
0.002443,0.0012332,0.032627,0.011368,0.013199,0.0047562,0,0,0.050515,-0.0047588,0,0.024732,0,0,0,0.033648,0.010348,0.013199,12.067,0.019065,0.022014,5.1729e-07,0.05,0.21,0
0.0029517,0.0014041,0.032846,0.010858,0.013111,0.0044693,0,0,0.05131,-0.0058588,0,0.02324,0,0,0,0.033725,0.009978,0.013111,11.077,0.018938,0.022347,5.3555e-07,0.06,0.21,0
0.0034692,0.001546,0.033146,0.010237,0.013015,0.0041407,0,0,0.052341,-0.0072222,0,0.021531,0,0,0,0.03388,0.0095036,0.013015,9.9585,0.018799,0.022825,5.6253e-07,0.07,0.21,0
0.0039985,0.0016587,0.03359,0.0094789,0.012921,0.0038243,0,0,0.053741,-0.0089489,0,0.019886,0,0,0,0.034192,0.0088772,0.012921,8.8296,0.018663,0.023557,6.0599e-07,0.08,0.21,0
0.004544,0.0017452,0.034756,0.0087734,0.013059,0.0037235,0,0,0.053033,-0.010243,0,0.018241,0,0,0,0.035291,0.0082376,0.013059,8.0338,0.018863,0.025,7.3405e-07,0.09,0.21,0
0.0050665,0.0018158,0.035667,0.0081217,0.013137,0.0034229,0,0,0.046803,-0.010046,0,0.014676,0,0,0,0.036122,0.0076667,0.013137,6.972,0.018975,0.02616,8.6419e-07,0.1,0.21,0
0.0054938,0.0018905,0.035026,0.0074512,0.012743,0.0024693,0,0,0.037961,-0.0088631,0,0.0091242,0,0,0,0.035289,0.0071878,0.012743,5.0552,0.018407,0.025781,8.252e-07,0.11,0.21,0
0.0058292,0.0019818,0.034796,0.0070588,0.012556,0.0016151,0,0,0.032181,-0.0079601,0,0.0050543,0,0,0,0.034904,0.0069506,0.012556,3.3894,0.018137,0.025616,7.6399e-07,0.12,0.21,0
0.0061324,0.0020798,0.035643,0.0069372,0.012774,0.001236,0,0,0.03033,-0.0077472,0,0.0033671,0,0,0,0.035699,0.0068806,0.012774,2.4979,0.018451,0.026371,7.9397e-07,0.13,0.21,0
0.0064337,0.0021727,0.036106,0.0067286,0.01285,0.0010049,0,0,0.030232,-0.0079581,0,0.0026127,0,0,0,0.036141,0.0066934,0.01285,1.9592,0.018561,0.026903,8.2616e-07,0.14,0.21,0
0.006737,0.0022596,0.036137,0.0062577,0.012718,0.00081392,0,0,0.030444,-0.0083989,0,0.0021162,0,0,0,0.03616,0.0062348,0.012718,1.5631,0.018371,0.027269,8.4603e-07,0.15,0.21,0
0.0070426,0.0023416,0.03613,0.0056598,0.012537,0.00059106,0,0,0.030671,-0.0089404,0,0.0015367,0,0,0,0.036143,0.0056471,0.012537,1.1156,0.018109,0.027702,8.6814e-07,0.16,0.21,0
0.0073505,0.0024176,0.036132,0.0051735,0.012392,0.00033584,0,0,0.030863,-0.0093836,0,0.00087318,0,0,0,0.036137,0.0051688,0.012392,0.6246,0.017899,0.028063,8.8651e-07,0.17,0.21,0
0.0076598,0.0024871,0.036105,0.0047982,0.012271,0.00010369,0,0,0.030985,-0.0097148,0,0.00026959,0,0,0,0.036107,0.0047971,0.012271,0.19178,0.017725,0.028322,8.9854e-07,0.18,0.21,0
0.0079702,0.0025506,0.036053,0.0044366,0.012147,-9.0428e-05,0,0,0.031078,-0.010023,0,-0.00023511,0,0,0,0.036054,0.0044358,0.012147,-0.1622,0.017546,0.028555,9.0819e-07,0.19,0.21,0
0.0082814,0.0026089,0.035999,0.0040752,0.012022,-0.00026464,0,0,0.03117,-0.010331,0,-0.00068806,0,0,0,0.036002,0.0040725,0.012022,-0.47339,0.017365,0.02879,9.1772e-07,0.2,0.21,0
0.0085935,0.0026625,0.035945,0.0037379,0.011905,-0.00042867,0,0,0.031252,-0.010617,0,-0.0011145,0,0,0,0.035951,0.0037317,0.011905,-0.76113,0.017196,0.02901,9.2636e-07,0.21,0.21,0
0.0089064,0.0027118,0.035887,0.0034324,0.011796,-0.00057432,0,0,0.031318,-0.010872,0,-0.0014932,0,0,0,0.035897,0.003422,0.011796,-1.0126,0.017038,0.029203,9.3337e-07,0.22,0.21,0
0.0092199,0.0027576,0.035822,0.0031408,0.011689,-0.00069236,0,0,0.031373,-0.011112,0,-0.0018001,0,0,0,0.035837,0.0031259,0.011689,-1.2124,0.016884,0.029381,9.3919e-07,0.23,0.21,0
0.0095339,0.0028004,0.035755,0.0028401,0.011579,-0.0007828,0,0,0.03143,-0.01136,0,-0.0020353,0,0,0,0.035774,0.0028214,0.011579,-1.3611,0.016725,0.029564,9.4497e-07,0.24,0.21,0
0.0098485,0.002841,0.035694,0.0025164,0.011463,-0.00085349,0,0,0.0315,-0.011631,0,-0.0022191,0,0,0,0.035716,0.0024944,0.011463,-1.4722,0.016558,0.029768,9.5168e-07,0.25,0.21,0
0.010164,0.0028796,0.035638,0.0021653,0.011341,-0.00091526,0,0,0.031586,-0.011928,0,-0.0023797,0,0,0,0.035663,0.0021402,0.011341,-1.5647,0.016382,0.03,9.5962e-07,0.26,0.21,0
0.01048,0.0029165,0.035587,0.0017934,0.011214,-0.00097763,0,0,0.031684,-0.012247,0,-0.0025418,0,0,0,0.035615,0.001765,0.011214,-1.6552,0.016198,0.030253,9.6837e-07,0.27,0.21,0
0.010798,0.0029516,0.035537,0.0014184,0.011087,-0.001043,0,0,0.031785,-0.012569,0,-0.0027118,0,0,0,0.035569,0.0013864,0.011087,-1.7488,0.016014,0.030512,9.7717e-07,0.28,0.21,0
0.011116,0.002985,0.035493,0.0010565,0.010965,-0.0011037,0,0,0.031887,-0.012881,0,-0.0028697,0,0,0,0.035529,0.001021,0.010965,-1.8335,0.015838,0.030766,9.8579e-07,0.29,0.21,0
0.011435,0.0030169,0.035464,0.00069753,0.010849,-0.0011524,0,0,0.032,-0.013196,0,-0.0029963,0,0,0,0.035502,0.00065934,0.010849,-1.8962,0.01567,0.03103,9.9517e-07,0.3,0.21,0
0.011756,0.0030473,0.035447,0.00031287,0.010728,-0.0012003,0,0,0.032135,-0.01354,0,-0.0031207,0,0,0,0.035488,0.00027188,0.010728,-1.9539,0.015496,0.031326,1.0061e-06,0.31,0.21,0
0.012078,0.0030762,0.035417,-8.2986e-05,0.0106,-0.0012667,0,0,0.032262,-0.013888,0,-0.0032933,0,0,0,0.035462,-0.0001282,0.0106,-2.0404,0.015311,0.031622,1.0162e-06,0.32,0.21,0
0.012401,0.0031035,0.035375,-0.00037688,0.0105,-0.0013303,0,0,0.032339,-0.014139,0,-0.0034589,0,0,0,0.035425,-0.0004264,0.0105,-2.1279,0.015166,0.031828,1.022e-06,0.33,0.21,0
0.012725,0.0031308,0.035369,-0.00057903,0.010437,-0.0013231,0,0,0.032411,-0.014321,0,-0.0034402,0,0,0,0.035418,-0.00062787,0.010437,-2.1056,0.015076,0.031982,1.0273e-06,0.34,0.21,0
0.013049,0.0031601,0.035348,-0.00097347,0.010312,-0.0012522,0,0,0.032546,-0.014671,0,-0.0032558,0,0,0,0.035391,-0.0010169,0.010312,-1.9731,0.014896,0.032272,1.0362e-06,0.35,0.21,0
0.013376,0.003191,0.034962,-0.001565,0.010019,-0.001206,0,0,0.033098,-0.015383,0,-0.0032454,0,0,0,0.035002,-0.0016055,0.010019,-1.903,0.014472,0.0324,1.0295e-06,0.36,0.21,0
0.013709,0.003226,0.034295,-0.0020602,0.0096704,-0.0012008,0,0,0.035688,-0.016999,0,-0.0036124,0,0,0,0.034338,-0.0021037,0.0096704,-1.9024,0.013968,0.032212,1.0262e-06,0.37,0.21,0
0.014084,0.0032907,0.034665,-0.0024601,0.0096615,-0.0014463,0,0,0.042642,-0.020402,0,-0.005076,0,0,0,0.034736,-0.002531,0.0096615,-2.1669,0.013955,0.032919,1.1247e-06,0.38,0.21,0
0.014566,0.0034202,0.035381,-0.0023828,0.0098994,-0.0017117,0,0,0.052949,-0.02493,0,-0.0068894,0,0,0,0.035476,-0.0024782,0.0098994,-2.505,0.014299,0.033542,1.1806e-06,0.39,0.21,0
0.015158,0.0036044,0.034621,-0.0016025,0.0099056,-0.0014906,0,0,0.060428,-0.027804,0,-0.0070016,0,0,0,0.034693,-0.0016746,0.0099056,-2.3129,0.014308,0.03219,1.0309e-06,0.4,0.21,0
0.015782,0.0037997,0.033581,-0.00085796,0.0098169,-0.0012343,0,0,0.061786,-0.027755,0,-0.0064182,0,0,0,0.033629,-0.00090587,0.0098169,-2.0583,0.01418,0.030616,8.8883e-07,0.41,0.21,0
0.016394,0.0039849,0.03315,-0.00042527,0.0098174,-0.0012513,0,0,0.060665,-0.026631,0,-0.006507,0,0,0,0.033199,-0.00047409,0.0098174,-2.1371,0.014181,0.029887,8.4377e-07,0.42,0.21,0
0.016996,0.0041569,0.032848,-0.00016158,0.0098058,-0.0013184,0,0,0.059909,-0.025915,0,-0.0068558,0,0,0,0.032901,-0.00021504,0.0098058,-2.2871,0.014164,0.029415,8.1453e-07,0.43,0.21,0
0.017592,0.0043146,0.032657,-6.1254e-05,0.0097786,-0.0013693,0,0,0.059483,-0.025584,0,-0.0071201,0,0,0,0.032714,-0.00011884,0.0097786,-2.3946,0.014125,0.029172,7.9826e-07,0.44,0.21,0
0.018185,0.00446,0.032535,-3.1908e-05,0.0097509,-0.0013779,0,0,0.059238,-0.025435,0,-0.0071651,0,0,0,0.032593,-9.0345e-05,0.0097509,-2.4203,0.014085,0.029042,7.887e-07,0.45,0.21,0
0.018777,0.0045956,0.032439,-3.0684e-05,0.0097225,-0.001354,0,0,0.059063,-0.025358,0,-0.0070409,0,0,0,0.032496,-8.7265e-05,0.0097225,-2.3854,0.014044,0.028953,7.8154e-07,0.46,0.21,0
0.019367,0.0047231,0.032352,-4.1808e-05,0.0096931,-0.0013119,0,0,0.058914,-0.025311,0,-0.0068217,0,0,0,0.032406,-9.5053e-05,0.0096931,-2.3167,0.014001,0.028879,7.7521e-07,0.47,0.21,0
0.019955,0.004844,0.032271,-5.566e-05,0.0096645,-0.0012613,0,0,0.058776,-0.025272,0,-0.0065586,0,0,0,0.03232,-0.00010499,0.0096645,-2.2322,0.01396,0.02881,7.693e-07,0.48,0.21,0
0.020542,0.0049592,0.032193,-6.7199e-05,0.0096377,-0.0012088,0,0,0.058644,-0.025233,0,-0.0062857,0,0,0,0.032238,-0.0001126,0.0096377,-2.1439,0.013921,0.028744,7.6366e-07,0.49,0.21,0
0.021128,0.0050692,0.03212,-7.4933e-05,0.0096134,-0.0011589,0,0,0.058516,-0.02519,0,-0.006026,0,0,0,0.032161,-0.00011674,0.0096134,-2.0597,0.013886,0.028679,7.5828e-07,0.5,0.21,0
0.021712,0.0051746,0.03205,-7.9364e-05,0.0095913,-0.0011141,0,0,0.058394,-0.025144,0,-0.0057934,0,0,0,0.032089,-0.00011808,0.0095913,-1.9844,0.013854,0.028616,7.532e-07,0.51,0.21,0
0.022296,0.0052755,0.031987,-8.1812e-05,0.0095714,-0.0010758,0,0,0.058279,-0.025098,0,-0.005594,0,0,0,0.032023,-0.00011796,0.0095714,-1.9198,0.013825,0.028557,7.4852e-07,0.52,0.21,0
0.022878,0.0053722,0.031928,-8.3725e-05,0.0095534,-0.0010439,0,0,0.058175,-0.025057,0,-0.0054282,0,0,0,0.031963,-0.00011781,0.0095534,-1.8663,0.013799,0.028503,7.4428e-07,0.53,0.21,0
0.023459,0.0054647,0.031876,-8.6322e-05,0.009537,-0.0010179,0,0,0.058082,-0.025021,0,-0.005293,0,0,0,0.031909,-0.00011877,0.009537,-1.8227,0.013776,0.028456,7.4055e-07,0.54,0.21,0
0.02404,0.005553,0.03183,-9.0473e-05,0.0095219,-0.00099686,0,0,0.058002,-0.024992,0,-0.0051837,0,0,0,0.031861,-0.00012162,0.0095219,-1.7874,0.013754,0.028416,7.3732e-07,0.55,0.21,0
0.024619,0.0056374,0.03179,-9.668e-05,0.009508,-0.0009797,0,0,0.057933,-0.024972,0,-0.0050944,0,0,0,0.03182,-0.00012679,0.009508,-1.7585,0.013734,0.028384,7.3458e-07,0.56,0.21,0
0.025198,0.0057179,0.031755,-0.00010513,0.0094951,-0.00096534,0,0,0.057877,-0.02496,0,-0.0050198,0,0,0,0.031785,-0.00013438,0.0094951,-1.7342,0.013715,0.028358,7.3231e-07,0.57,0.21,0
0.025777,0.0057945,0.031726,-0.00011578,0.0094829,-0.00095283,0,0,0.057831,-0.024957,0,-0.0049547,0,0,0,0.031754,-0.00014429,0.0094829,-1.7127,0.013698,0.028339,7.3044e-07,0.58,0.21,0
0.026355,0.0058673,0.0317,-0.00012839,0.0094716,-0.00094133,0,0,0.057795,-0.02496,0,-0.0048949,0,0,0,0.031728,-0.00015622,0.0094716,-1.6927,0.013681,0.028325,7.2894e-07,0.59,0.21,0
0.026933,0.0059366,0.031679,-0.00014265,0.0094608,-0.00093018,0,0,0.057766,-0.024969,0,-0.0048369,0,0,0,0.031706,-0.00016983,0.0094608,-1.6731,0.013666,0.028317,7.2774e-07,0.6,0.21,0
0.02751,0.0060024,0.03166,-0.00015815,0.0094507,-0.00091884,0,0,0.057745,-0.024983,0,-0.004778,0,0,0,0.031687,-0.00018468,0.0094507,-1.6529,0.013651,0.028312,7.2679e-07,0.61,0.21,0
0.028088,0.0060648,0.031645,-0.00017452,0.009441,-0.00090695,0,0,0.057729,-0.025,0,-0.0047161,0,0,0,0.03167,-0.00020036,0.009441,-1.6315,0.013637,0.028309,7.2604e-07,0.62,0.21,0
0.028665,0.006124,0.031631,-0.00019136,0.0094319,-0.00089424,0,0,0.057718,-0.025021,0,-0.00465,0,0,0,0.031656,-0.00021648,0.0094319,-1.6085,0.013624,0.02831,7.2545e-07,0.63,0.21,0
0.029242,0.0061801,0.031619,-0.00020834,0.0094233,-0.00088054,0,0,0.05771,-0.025042,0,-0.0045788,0,0,0,0.031644,-0.00023269,0.0094233,-1.5836,0.013611,0.028312,7.2497e-07,0.64,0.21,0
0.029819,0.0062333,0.031609,-0.00022514,0.0094152,-0.00086577,0,0,0.057704,-0.025065,0,-0.004502,0,0,0,0.031633,-0.00024867,0.0094152,-1.5568,0.0136,0.028314,7.2459e-07,0.65,0.21,0
0.030396,0.0062837,0.0316,-0.00024151,0.0094075,-0.00084991,0,0,0.0577,-0.025087,0,-0.0044195,0,0,0,0.031622,-0.00026418,0.0094075,-1.528,0.013589,0.028318,7.2427e-07,0.66,0.21,0
0.030973,0.0063313,0.031591,-0.00025725,0.0094002,-0.00083295,0,0,0.057697,-0.025109,0,-0.0043314,0,0,0,0.031613,-0.00027903,0.0094002,-1.4972,0.013578,0.028321,7.2398e-07,0.67,0.21,0
0.03155,0.0063764,0.031584,-0.00027221,0.0093934,-0.00081496,0,0,0.057695,-0.025131,0,-0.0042378,0,0,0,0.031605,-0.00029305,0.0093934,-1.4646,0.013568,0.028325,7.2373e-07,0.68,0.21,0
0.032127,0.006419,0.031577,-0.00028628,0.0093871,-0.00079599,0,0,0.057693,-0.025151,0,-0.0041392,0,0,0,0.031596,-0.00030616,0.0093871,-1.4302,0.013559,0.028328,7.2348e-07,0.69,0.21,0
0.032704,0.0064593,0.03157,-0.00029939,0.0093811,-0.00077613,0,0,0.057691,-0.025169,0,-0.0040359,0,0,0,0.031589,-0.00031829,0.0093811,-1.3943,0.013551,0.028331,7.2325e-07,0.7,0.21,0
0.033281,0.0064974,0.031564,-0.0003115,0.0093756,-0.00075545,0,0,0.057689,-0.025186,0,-0.0039283,0,0,0,0.031581,-0.00032941,0.0093756,-1.357,0.013543,0.028334,7.2301e-07,0.71,0.21,0
0.033858,0.0065334,0.031558,-0.00032262,0.0093705,-0.00073403,0,0,0.057686,-0.025202,0,-0.003817,0,0,0,0.031574,-0.00033952,0.0093705,-1.3183,0.013535,0.028335,7.2277e-07,0.72,0.21,0
0.034434,0.0065673,0.031552,-0.00033275,0.0093657,-0.00071195,0,0,0.057684,-0.025216,0,-0.0037021,0,0,0,0.031568,-0.00034865,0.0093657,-1.2786,0.013528,0.028337,7.2253e-07,0.73,0.21,0
0.035011,0.0065993,0.031546,-0.00034192,0.0093614,-0.00068928,0,0,0.057681,-0.025229,0,-0.0035843,0,0,0,0.031561,-0.00035683,0.0093614,-1.2377,0.013522,0.028338,7.2228e-07,0.74,0.21,0
0.035588,0.0066294,0.031541,-0.00035019,0.0093573,-0.00066608,0,0,0.057678,-0.02524,0,-0.0034636,0,0,0,0.031555,-0.00036411,0.0093573,-1.196,0.013516,0.028338,7.2203e-07,0.75,0.21,0
0.036165,0.0066578,0.031536,-0.00035761,0.0093536,-0.00064242,0,0,0.057675,-0.025249,0,-0.0033406,0,0,0,0.031549,-0.00037056,0.0093536,-1.1535,0.013511,0.028338,7.2178e-07,0.76,0.21,0
0.036742,0.0066845,0.031532,-0.00036424,0.0093503,-0.00061833,0,0,0.057672,-0.025258,0,-0.0032153,0,0,0,0.031544,-0.00037624,0.0093503,-1.1102,0.013506,0.028338,7.2154e-07,0.77,0.21,0
0.037318,0.0067095,0.031527,-0.00037015,0.0093472,-0.00059387,0,0,0.057669,-0.025265,0,-0.0030881,0,0,0,0.031539,-0.00038121,0.0093472,-1.0663,0.013502,0.028337,7.2129e-07,0.78,0.21,0
0.037895,0.006733,0.031523,-0.00037539,0.0093444,-0.00056906,0,0,0.057665,-0.025271,0,-0.0029591,0,0,0,0.031534,-0.00038555,0.0093444,-1.0217,0.013497,0.028336,7.2106e-07,0.79,0.21,0
0.038472,0.006755,0.03152,-0.00038003,0.0093419,-0.00054394,0,0,0.057662,-0.025277,0,-0.0028285,0,0,0,0.031529,-0.00038932,0.0093419,-0.97663,0.013494,0.028335,7.2083e-07,0.8,0.21,0
0.039048,0.0067755,0.031516,-0.00038414,0.0093396,-0.00051853,0,0,0.057659,-0.025282,0,-0.0026964,0,0,0,0.031525,-0.00039258,0.0093396,-0.93103,0.013491,0.028334,7.2061e-07,0.81,0.21,0
0.039625,0.0067947,0.031513,-0.00038776,0.0093375,-0.00049285,0,0,0.057656,-0.025286,0,-0.0025628,0,0,0,0.031521,-0.00039539,0.0093375,-0.88494,0.013488,0.028332,7.204e-07,0.82,0.21,0
0.040201,0.0068126,0.03151,-0.00039096,0.0093357,-0.00046693,0,0,0.057653,-0.025289,0,-0.002428,0,0,0,0.031517,-0.00039781,0.0093357,-0.83841,0.013485,0.028331,7.202e-07,0.83,0.21,0
0.040778,0.0068291,0.031507,-0.00039378,0.0093341,-0.00044077,0,0,0.05765,-0.025292,0,-0.002292,0,0,0,0.031513,-0.00039988,0.0093341,-0.79146,0.013483,0.02833,7.2002e-07,0.84,0.21,0
0.041354,0.0068445,0.031505,-0.00039626,0.0093326,-0.00041438,0,0,0.057648,-0.025295,0,-0.0021548,0,0,0,0.03151,-0.00040165,0.0093326,-0.7441,0.01348,0.028328,7.1985e-07,0.85,0.21,0
0.041931,0.0068586,0.031503,-0.00039845,0.0093313,-0.00038779,0,0,0.057646,-0.025297,0,-0.0020165,0,0,0,0.031507,-0.00040317,0.0093313,-0.69636,0.013479,0.028327,7.1969e-07,0.86,0.21,0
0.042507,0.0068716,0.031501,-0.00040037,0.0093301,-0.000361,0,0,0.057644,-0.025299,0,-0.0018772,0,0,0,0.031505,-0.00040446,0.0093301,-0.64827,0.013477,0.028326,7.1955e-07,0.87,0.21,0
0.043084,0.0068835,0.031499,-0.00040206,0.0093291,-0.00033401,0,0,0.057642,-0.025301,0,-0.0017369,0,0,0,0.031503,-0.00040557,0.0093291,-0.59983,0.013475,0.028325,7.1942e-07,0.88,0.21,0
0.04366,0.0068943,0.031498,-0.00040354,0.0093283,-0.00030685,0,0,0.057641,-0.025303,0,-0.0015956,0,0,0,0.031501,-0.0004065,0.0093283,-0.55106,0.013474,0.028324,7.193e-07,0.89,0.21,0
0.044236,0.006904,0.031496,-0.00040484,0.0093275,-0.00027953,0,0,0.057639,-0.025304,0,-0.0014535,0,0,0,0.031499,-0.0004073,0.0093275,-0.502,0.013473,0.028323,7.192e-07,0.9,0.21,0
0.044813,0.0069128,0.031495,-0.00040597,0.0093268,-0.00025204,0,0,0.057638,-0.025305,0,-0.0013106,0,0,0,0.031497,-0.00040797,0.0093268,-0.45265,0.013472,0.028322,7.1911e-07,0.91,0.21,0
0.045389,0.0069205,0.031494,-0.00040694,0.0093262,-0.00022442,0,0,0.057637,-0.025306,0,-0.001167,0,0,0,0.031496,-0.00040853,0.0093262,-0.40304,0.013471,0.028321,7.1903e-07,0.92,0.21,0
0.045966,0.0069273,0.031494,-0.00040778,0.0093258,-0.00019666,0,0,0.057637,-0.025307,0,-0.0010226,0,0,0,0.031495,-0.00040901,0.0093258,-0.3532,0.013471,0.02832,7.1896e-07,0.93,0.21,0
0.046542,0.0069332,0.031493,-0.00040849,0.0093254,-0.00016879,0,0,0.057636,-0.025308,0,-0.00087771,0,0,0,0.031494,-0.0004094,0.0093254,-0.30314,0.01347,0.02832,7.1891e-07,0.94,0.21,0
0.047118,0.0069381,0.031492,-0.00040908,0.009325,-0.00014082,0,0,0.057635,-0.025309,0,-0.00073225,0,0,0,0.031493,-0.00040971,0.009325,-0.25291,0.013469,0.028319,7.1886e-07,0.95,0.21,0
0.047695,0.0069421,0.031492,-0.00040955,0.0093248,-0.00011276,0,0,0.057635,-0.025309,0,-0.00058634,0,0,0,0.031492,-0.00040997,0.0093248,-0.20252,0.013469,0.028319,7.1882e-07,0.96,0.21,0
0.048271,0.0069452,0.031492,-0.00040992,0.0093246,-8.463e-05,0,0,0.057635,-0.02531,0,-0.00044008,0,0,0,0.031492,-0.00041015,0.0093246,-0.152,0.013469,0.028319,7.1879e-07,0.97,0.21,0
0.048847,0.0069474,0.031492,-0.00041018,0.0093244,-5.645e-05,0,0,0.057635,-0.02531,0,-0.00029354,0,0,0,0.031492,-0.00041029,0.0093244,-0.10139,0.013469,0.028319,7.1877e-07,0.98,0.21,0
0.049424,0.0069487,0.031491,-0.00041033,0.0093243,-2.6122e-05,0,0,0.057634,-0.02531,0,-0.00013583,0,0,0,0.031491,-0.00041037,0.0093243,-0.046916,0.013468,0.028318,7.1876e-07,0.99,0.21,0
0.049712,0.0069491,0.031491,-0.00041038,0.0093243,-9.8957e-06,0,0,0.057634,-0.02531,0,-5.1458e-05,0,0,0,0.031491,-0.00041039,0.0093243,-0.017773,0.013468,0.028318,7.1876e-07,1,0.21,0
0.00024326,0.00014404,0.03272,0.013736,0.013937,0.0055272,0,0,0.048836,-0.00052225,0,0.028742,0,0,0,0.034214,0.012242,0.013937,15.112,0.020131,0.021176,4.7724e-07,0,0.22,0
0.00048836,0.00028173,0.032756,0.01347,0.013868,0.0054596,0,0,0.04911,-0.0010349,0,0.02839,0,0,0,0.034198,0.012028,0.013868,14.769,0.020031,0.021311,4.8467e-07,0.01,0.22,0
0.0009822,0.00054465,0.032892,0.012974,0.01376,0.0052748,0,0,0.049744,-0.0020432,0,0.027429,0,0,0,0.034208,0.011659,0.01376,13.966,0.019876,0.021576,4.9958e-07,0.02,0.22,0
0.0014832,0.00078291,0.033092,0.01252,0.013684,0.0050455,0,0,0.050461,-0.0030244,0,0.026236,0,0,0,0.034267,0.011345,0.013684,13.078,0.019765,0.021847,5.1517e-07,0.03,0.22,0
0.0019914,0.00099655,0.033288,0.012071,0.013608,0.0048178,0,0,0.051169,-0.0039954,0,0.025053,0,0,0,0.034336,0.011024,0.013608,12.226,0.019656,0.022134,5.3168e-07,0.04,0.22,0
0.0025066,0.0011847,0.033471,0.011614,0.013525,0.004572,0,0,0.051858,-0.0049698,0,0.023775,0,0,0,0.034393,0.010691,0.013525,11.365,0.019537,0.02242,5.4806e-07,0.05,0.22,0
0.0030286,0.0013452,0.033637,0.011145,0.013435,0.0042754,0,0,0.052526,-0.0059523,0,0.022232,0,0,0,0.034427,0.010355,0.013435,10.42,0.019406,0.02269,5.6314e-07,0.06,0.22,0
0.0035571,0.001474,0.033835,0.010587,0.013327,0.0039076,0,0,0.053321,-0.0071226,0,0.020319,0,0,0,0.034481,0.009941,0.013327,9.3057,0.019249,0.023035,5.8244e-07,0.07,0.22,0
0.004095,0.0015692,0.034432,0.0099593,0.013317,0.0035562,0,0,0.053735,-0.0085239,0,0.018207,0,0,0,0.034945,0.0094463,0.013317,8.1421,0.019236,0.023802,6.3977e-07,0.08,0.22,0
0.0046361,0.0016447,0.035089,0.0091933,0.013285,0.003178,0,0,0.050419,-0.0091812,0,0.01489,0,0,0,0.035497,0.0087852,0.013285,6.8757,0.019189,0.024779,7.3177e-07,0.09,0.22,0
0.0051138,0.0017228,0.034885,0.0083318,0.012965,0.0025163,0,0,0.041554,-0.0083574,0,0.0097612,0,0,0,0.035166,0.0080505,0.012965,5.2438,0.018727,0.025037,7.5889e-07,0.1,0.22,0
0.0054728,0.0018125,0.034792,0.0078949,0.012806,0.0018065,0,0,0.03304,-0.0072184,0,0.0055498,0,0,0,0.034936,0.0077505,0.012806,3.7754,0.018498,0.025051,7.3257e-07,0.11,0.22,0
0.0057716,0.0019096,0.035579,0.0077418,0.012996,0.0014402,0,0,0.029991,-0.0069841,0,0.0038637,0,0,0,0.035655,0.0076656,0.012996,2.9707,0.018772,0.025742,7.585e-07,0.12,0.22,0
0.0060702,0.002005,0.036143,0.0073841,0.013058,0.0012237,0,0,0.030011,-0.0073764,0,0.0031817,0,0,0,0.036197,0.0073304,0.013058,2.4372,0.018862,0.026472,8.0443e-07,0.13,0.22,0
0.0063718,0.0020937,0.036223,0.0069149,0.012941,0.00098745,0,0,0.030266,-0.0078343,0,0.0025674,0,0,0,0.036257,0.0068807,0.012941,1.9309,0.018693,0.026864,8.2736e-07,0.14,0.22,0
0.0066755,0.0021762,0.036243,0.0064309,0.012802,0.00078278,0,0,0.030473,-0.0082826,0,0.0020352,0,0,0,0.036264,0.0064097,0.012802,1.5063,0.018492,0.027227,8.4706e-07,0.15,0.22,0
0.0069813,0.0022533,0.036245,0.0059124,0.012647,0.00058315,0,0,0.030677,-0.0087554,0,0.0015162,0,0,0,0.036257,0.0059003,0.012647,1.1044,0.018268,0.027609,8.6703e-07,0.16,0.22,0
0.007289,0.0023248,0.036234,0.0054214,0.012497,0.00036787,0,0,0.030858,-0.0091978,0,0.00095646,0,0,0,0.036239,0.0054161,0.012497,0.68694,0.018051,0.027964,8.8487e-07,0.17,0.22,0
0.0075984,0.0023906,0.036208,0.0049958,0.012361,0.00015492,0,0,0.031001,-0.0095748,0,0.00040279,0,0,0,0.036209,0.0049943,0.012361,0.28668,0.017855,0.028261,8.9906e-07,0.18,0.22,0
0.007909,0.0024509,0.036161,0.0046097,0.012231,-3.8577e-05,0,0,0.031109,-0.009908,0,-0.0001003,0,0,0,0.036162,0.004609,0.012231,-0.068246,0.017667,0.028516,9.102e-07,0.19,0.22,0
0.0082206,0.0025061,0.036101,0.0042424,0.012103,-0.00021183,0,0,0.031198,-0.010219,0,-0.00055076,0,0,0,0.036103,0.0042405,0.012103,-0.37945,0.017482,0.02875,9.1957e-07,0.2,0.22,0
0.008533,0.0025569,0.036035,0.0038939,0.011979,-0.00036759,0,0,0.031274,-0.01051,0,-0.00095572,0,0,0,0.03604,0.0038893,0.011979,-0.65393,0.017303,0.028966,9.2769e-07,0.21,0.22,0
0.0088461,0.0026036,0.035965,0.003564,0.011859,-0.00050436,0,0,0.031338,-0.010783,0,-0.0013113,0,0,0,0.035973,0.0035558,0.011859,-0.89062,0.017129,0.029166,9.3466e-07,0.22,0.22,0
0.0091598,0.0026468,0.035892,0.0032436,0.011741,-0.00061931,0,0,0.031397,-0.011046,0,-0.0016102,0,0,0,0.035904,0.0032316,0.011741,-1.0856,0.016959,0.029358,9.4087e-07,0.23,0.22,0
0.009474,0.002687,0.035819,0.0029197,0.011622,-0.00071309,0,0,0.031457,-0.011313,0,-0.001854,0,0,0,0.035835,0.0029041,0.011622,-1.2405,0.016787,0.029553,9.4701e-07,0.24,0.22,0
0.0097889,0.0027248,0.03575,0.0025822,0.0115,-0.00079082,0,0,0.031526,-0.011593,0,-0.0020561,0,0,0,0.035769,0.0025632,0.0115,-1.3645,0.016611,0.029762,9.5368e-07,0.25,0.22,0
0.010105,0.0027605,0.035687,0.0022277,0.011374,-0.00085975,0,0,0.031606,-0.011891,0,-0.0022354,0,0,0,0.035709,0.0022055,0.011374,-1.4705,0.016429,0.029989,9.6113e-07,0.26,0.22,0
0.010421,0.0027943,0.035628,0.00186,0.011246,-0.00092601,0,0,0.031696,-0.012202,0,-0.0024076,0,0,0,0.035653,0.0018345,0.011246,-1.5691,0.016245,0.030232,9.692e-07,0.27,0.22,0
0.010738,0.0028262,0.035574,0.0014873,0.011118,-0.00099176,0,0,0.031792,-0.01252,0,-0.0025786,0,0,0,0.035603,0.0014584,0.011118,-1.6647,0.01606,0.030485,9.776e-07,0.28,0.22,0
0.011057,0.0028564,0.035525,0.0011151,0.010992,-0.0010556,0,0,0.031893,-0.01284,0,-0.0027445,0,0,0,0.035558,0.0010827,0.010992,-1.7549,0.015878,0.030743,9.8621e-07,0.29,0.22,0
0.011376,0.002885,0.035483,0.00074051,0.010867,-0.001117,0,0,0.032001,-0.013164,0,-0.0029043,0,0,0,0.035519,0.00070458,0.010867,-1.8392,0.015697,0.031008,9.9511e-07,0.3,0.22,0
0.011697,0.0029121,0.03544,0.00036129,0.01074,-0.0011795,0,0,0.032109,-0.013493,0,-0.0030667,0,0,0,0.03548,0.00032162,0.01074,-1.9232,0.015514,0.031278,1.0039e-06,0.31,0.22,0
0.012018,0.0029378,0.035391,-1.2842e-06,0.010617,-0.001241,0,0,0.032206,-0.013804,0,-0.0032266,0,0,0,0.035435,-4.4807e-05,0.010617,-2.0053,0.015336,0.031531,1.0113e-06,0.32,0.22,0
0.012341,0.0029625,0.035345,-0.00032115,0.010507,-0.0012798,0,0,0.032289,-0.014077,0,-0.0033275,0,0,0,0.035391,-0.00036707,0.010507,-2.0523,0.015177,0.03175,1.0173e-06,0.33,0.22,0
0.012664,0.0029873,0.035307,-0.00064655,0.010398,-0.0012741,0,0,0.032381,-0.014358,0,-0.0033127,0,0,0,0.035352,-0.00069171,0.010398,-2.0273,0.015019,0.031975,1.0235e-06,0.34,0.22,0
0.012989,0.003013,0.035269,-0.0010566,0.010264,-0.0012463,0,0,0.032507,-0.014716,0,-0.0032404,0,0,0,0.035312,-0.0010993,0.010264,-1.963,0.014825,0.032267,1.0318e-06,0.35,0.22,0
0.013314,0.0030397,0.035186,-0.0015187,0.0101,-0.0012256,0,0,0.032611,-0.015104,0,-0.0031865,0,0,0,0.035227,-0.0015598,0.0101,-1.9104,0.014589,0.032562,1.0373e-06,0.36,0.22,0
0.013641,0.0030677,0.034711,-0.0019707,0.009822,-0.0011252,0,0,0.033072,-0.015668,0,-0.0029638,0,0,0,0.034746,-0.0020063,0.009822,-1.7491,0.014187,0.032496,1.0171e-06,0.37,0.22,0
0.013973,0.0031061,0.034096,-0.0024497,0.009494,-0.0010271,0,0,0.036995,-0.017604,0,-0.0028195,0,0,0,0.034139,-0.0024921,0.009494,-1.5256,0.013714,0.032365,1.0082e-06,0.38,0.22,0
0.014377,0.0031838,0.0343,-0.0025085,0.0095376,-0.0010977,0,0,0.046922,-0.021969,0,-0.0036649,0,0,0,0.034359,-0.002567,0.0095376,-1.555,0.013776,0.032637,1.0519e-06,0.39,0.22,0
0.014918,0.003327,0.034635,-0.001799,0.0098508,-0.001087,0,0,0.057313,-0.0264,0,-0.0046943,0,0,0,0.034681,-0.001845,0.0098508,-1.6268,0.014229,0.032325,1.0414e-06,0.4,0.22,0
0.015535,0.0035193,0.03416,-0.00091872,0.0099725,-0.00095051,0,0,0.06157,-0.027678,0,-0.0048108,0,0,0,0.034188,-0.00094606,0.0099725,-1.5459,0.014405,0.031145,9.4515e-07,0.41,0.22,0
0.016154,0.003717,0.033628,-0.00033087,0.0099891,-0.00098386,0,0,0.061461,-0.026832,0,-0.005116,0,0,0,0.033658,-0.00036083,0.0099891,-1.6619,0.014429,0.030205,8.7564e-07,0.42,0.22,0
0.016764,0.0038961,0.033406,-7.9489e-05,0.0099978,-0.0011356,0,0,0.06086,-0.026201,0,-0.005905,0,0,0,0.033445,-0.00011883,0.0099978,-1.9429,0.014441,0.029822,8.5281e-07,0.43,0.22,0
0.017371,0.0040567,0.033245,-4.1158e-05,0.0099612,-0.0012296,0,0,0.060538,-0.026006,0,-0.0063939,0,0,0,0.033291,-8.703e-05,0.0099612,-2.1153,0.014388,0.029659,8.4032e-07,0.44,0.22,0
0.017975,0.0042033,0.033105,-4.1863e-05,0.0099191,-0.0012544,0,0,0.060285,-0.025898,0,-0.0065227,0,0,0,0.033153,-8.97e-05,0.0099191,-2.1665,0.014328,0.029539,8.3001e-07,0.45,0.22,0
0.018577,0.0043396,0.032966,-6.1562e-05,0.0098713,-0.0012407,0,0,0.060046,-0.025825,0,-0.0064515,0,0,0,0.033013,-0.00010849,0.0098713,-2.1504,0.014259,0.029429,8.1996e-07,0.46,0.22,0
0.019176,0.0044677,0.032833,-8.5962e-05,0.0098242,-0.0012065,0,0,0.059824,-0.025766,0,-0.0062738,0,0,0,0.032878,-0.00013047,0.0098242,-2.0979,0.014191,0.029327,8.1048e-07,0.47,0.22,0
0.019773,0.0045891,0.03271,-0.00010488,0.0097816,-0.0011621,0,0,0.059614,-0.025705,0,-0.0060431,0,0,0,0.032752,-0.0001463,0.0097816,-2.0273,0.014129,0.029227,8.0155e-07,0.48,0.22,0
0.020368,0.0047048,0.032595,-0.00011527,0.0097441,-0.0011154,0,0,0.059414,-0.025634,0,-0.0058001,0,0,0,0.032634,-0.00015353,0.0097441,-1.952,0.014075,0.029128,7.931e-07,0.49,0.22,0
0.020961,0.0048154,0.032489,-0.00011811,0.0097113,-0.0010717,0,0,0.059222,-0.025556,0,-0.0055729,0,0,0,0.032524,-0.00015352,0.0097113,-1.8815,0.014027,0.029031,7.8515e-07,0.5,0.22,0
0.021553,0.0049214,0.032391,-0.00011596,0.0096826,-0.001034,0,0,0.059043,-0.025476,0,-0.0053766,0,0,0,0.032424,-0.000149,0.0096826,-1.8209,0.013986,0.028938,7.7779e-07,0.51,0.22,0
0.022142,0.005023,0.032303,-0.00011156,0.0096573,-0.0010032,0,0,0.058878,-0.025399,0,-0.0052167,0,0,0,0.032334,-0.00014273,0.0096573,-1.7718,0.013949,0.028853,7.7112e-07,0.52,0.22,0
0.02273,0.0051202,0.032223,-0.00010723,0.0096349,-0.00097921,0,0,0.05873,-0.025329,0,-0.0050919,0,0,0,0.032253,-0.00013697,0.0096349,-1.7339,0.013917,0.028777,7.6522e-07,0.53,0.22,0
0.023317,0.0052131,0.032154,-0.00010463,0.0096147,-0.00096104,0,0,0.058601,-0.02527,0,-0.0049974,0,0,0,0.032182,-0.00013332,0.0096147,-1.7055,0.013888,0.028711,7.6009e-07,0.54,0.22,0
0.023902,0.0053019,0.032093,-0.00010478,0.0095964,-0.00094744,0,0,0.058491,-0.025223,0,-0.0049267,0,0,0,0.032121,-0.0001327,0.0095964,-1.6845,0.013861,0.028656,7.5571e-07,0.55,0.22,0
0.024487,0.0053866,0.03204,-0.00010816,0.0095796,-0.00093712,0,0,0.058397,-0.025188,0,-0.004873,0,0,0,0.032068,-0.00013551,0.0095796,-1.6687,0.013837,0.028611,7.5204e-07,0.56,0.22,0
0.02507,0.0054672,0.031995,-0.00011486,0.0095641,-0.0009289,0,0,0.058321,-0.025165,0,-0.0048303,0,0,0,0.032022,-0.00014174,0.0095641,-1.656,0.013815,0.028575,7.4899e-07,0.57,0.22,0
0.025653,0.0055439,0.031956,-0.00012464,0.0095496,-0.00092175,0,0,0.058258,-0.025153,0,-0.0047931,0,0,0,0.031983,-0.00015113,0.0095496,-1.6447,0.013794,0.028548,7.4649e-07,0.58,0.22,0
0.026235,0.0056168,0.031923,-0.0001371,0.0095359,-0.00091483,0,0,0.058208,-0.02515,0,-0.0047571,0,0,0,0.03195,-0.00016321,0.0095359,-1.6334,0.013774,0.028528,7.4445e-07,0.59,0.22,0
0.026817,0.005686,0.031895,-0.00015175,0.009523,-0.00090753,0,0,0.058168,-0.025154,0,-0.0047192,0,0,0,0.031921,-0.00017745,0.009523,-1.621,0.013756,0.028514,7.428e-07,0.6,0.22,0
0.027399,0.0057516,0.031871,-0.00016805,0.0095109,-0.00089938,0,0,0.058136,-0.025165,0,-0.0046768,0,0,0,0.031896,-0.00019329,0.0095109,-1.6069,0.013738,0.028504,7.4146e-07,0.61,0.22,0
0.02798,0.0058139,0.03185,-0.00018546,0.0094993,-0.00089008,0,0,0.058111,-0.02518,0,-0.0046284,0,0,0,0.031875,-0.00021018,0.0094993,-1.5904,0.013721,0.028499,7.4036e-07,0.62,0.22,0
0.028561,0.0058729,0.031831,-0.0002035,0.0094883,-0.00087946,0,0,0.058092,-0.025199,0,-0.0045732,0,0,0,0.031855,-0.00022764,0.0094883,-1.5715,0.013705,0.028496,7.3946e-07,0.63,0.22,0
0.029142,0.0059288,0.031815,-0.00022174,0.0094779,-0.00086742,0,0,0.058076,-0.025219,0,-0.0045106,0,0,0,0.031838,-0.00024522,0.0094779,-1.55,0.01369,0.028494,7.3869e-07,0.64,0.22,0
0.029723,0.0059818,0.0318,-0.00023982,0.009468,-0.00085397,0,0,0.058063,-0.02524,0,-0.0044406,0,0,0,0.031823,-0.00026257,0.009468,-1.5258,0.013676,0.028495,7.3803e-07,0.65,0.22,0
0.030303,0.0060319,0.031786,-0.00025743,0.0094587,-0.00083913,0,0,0.058052,-0.025262,0,-0.0043635,0,0,0,0.031808,-0.00027939,0.0094587,-1.4991,0.013663,0.028495,7.3745e-07,0.66,0.22,0
0.030884,0.0060793,0.031774,-0.00027434,0.0094499,-0.000823,0,0,0.058042,-0.025283,0,-0.0042796,0,0,0,0.031795,-0.00029547,0.0094499,-1.4702,0.01365,0.028496,7.3691e-07,0.67,0.22,0
0.031464,0.0061242,0.031762,-0.00029038,0.0094415,-0.00080566,0,0,0.058034,-0.025303,0,-0.0041894,0,0,0,0.031782,-0.00031063,0.0094415,-1.439,0.013638,0.028497,7.364e-07,0.68,0.22,0
0.032044,0.0061667,0.031751,-0.00030544,0.0094337,-0.00078723,0,0,0.058025,-0.025322,0,-0.0040936,0,0,0,0.03177,-0.00032477,0.0094337,-1.406,0.013626,0.028498,7.3591e-07,0.69,0.22,0
0.032624,0.0062068,0.031741,-0.00031944,0.0094264,-0.00076781,0,0,0.058017,-0.025339,0,-0.0039926,0,0,0,0.031759,-0.00033783,0.0094264,-1.3712,0.013616,0.028498,7.3543e-07,0.7,0.22,0
0.033205,0.0062447,0.031731,-0.00033236,0.0094195,-0.00074752,0,0,0.058009,-0.025355,0,-0.0038871,0,0,0,0.031748,-0.00034979,0.0094195,-1.3349,0.013606,0.028498,7.3496e-07,0.71,0.22,0
0.033785,0.0062805,0.031721,-0.00034418,0.0094131,-0.00072646,0,0,0.058001,-0.025369,0,-0.0037776,0,0,0,0.031738,-0.00036064,0.0094131,-1.2973,0.013597,0.028497,7.345e-07,0.72,0.22,0
0.034365,0.0063143,0.031712,-0.00035494,0.0094071,-0.00070472,0,0,0.057993,-0.025381,0,-0.0036645,0,0,0,0.031728,-0.00037043,0.0094071,-1.2584,0.013588,0.028496,7.3403e-07,0.73,0.22,0
0.034945,0.0063462,0.031703,-0.00036467,0.0094016,-0.00068238,0,0,0.057984,-0.025392,0,-0.0035484,0,0,0,0.031718,-0.00037919,0.0094016,-1.2185,0.01358,0.028495,7.3357e-07,0.74,0.22,0
0.035524,0.0063762,0.031695,-0.00037343,0.0093965,-0.00065951,0,0,0.057976,-0.025402,0,-0.0034295,0,0,0,0.031709,-0.000387,0.0093965,-1.1777,0.013573,0.028493,7.3311e-07,0.75,0.22,0
0.036104,0.0064045,0.031687,-0.00038129,0.0093917,-0.00063618,0,0,0.057968,-0.02541,0,-0.0033081,0,0,0,0.0317,-0.00039392,0.0093917,-1.1361,0.013566,0.02849,7.3266e-07,0.76,0.22,0
0.036684,0.0064311,0.031679,-0.00038831,0.0093874,-0.00061243,0,0,0.05796,-0.025417,0,-0.0031846,0,0,0,0.031691,-0.00040002,0.0093874,-1.0938,0.01356,0.028488,7.3222e-07,0.77,0.22,0
0.037263,0.0064561,0.031672,-0.00039457,0.0093833,-0.00058831,0,0,0.057951,-0.025423,0,-0.0030592,0,0,0,0.031683,-0.00040537,0.0093833,-1.0507,0.013554,0.028485,7.318e-07,0.78,0.22,0
0.037843,0.0064795,0.031666,-0.00040014,0.0093797,-0.00056386,0,0,0.057944,-0.025427,0,-0.0029321,0,0,0,0.031676,-0.00041006,0.0093797,-1.0071,0.013548,0.028482,7.3139e-07,0.79,0.22,0
0.038422,0.0065014,0.031659,-0.00040508,0.0093763,-0.00053909,0,0,0.057936,-0.025432,0,-0.0028033,0,0,0,0.031668,-0.00041415,0.0093763,-0.96297,0.013544,0.028479,7.3099e-07,0.8,0.22,0
0.039001,0.0065219,0.031654,-0.00040946,0.0093732,-0.00051404,0,0,0.057929,-0.025435,0,-0.002673,0,0,0,0.031662,-0.00041771,0.0093732,-0.91829,0.013539,0.028476,7.3061e-07,0.81,0.22,0
0.039581,0.0065411,0.031648,-0.00041335,0.0093704,-0.00048871,0,0,0.057922,-0.025438,0,-0.0025413,0,0,0,0.031656,-0.00042081,0.0093704,-0.87312,0.013535,0.028473,7.3026e-07,0.82,0.22,0
0.04016,0.0065589,0.031643,-0.00041679,0.0093679,-0.00046313,0,0,0.057915,-0.02544,0,-0.0024083,0,0,0,0.03165,-0.00042349,0.0093679,-0.82749,0.013531,0.02847,7.2992e-07,0.83,0.22,0
0.040739,0.0065754,0.031638,-0.00041984,0.0093656,-0.00043731,0,0,0.057909,-0.025442,0,-0.002274,0,0,0,0.031644,-0.00042582,0.0093656,-0.78141,0.013528,0.028467,7.2961e-07,0.84,0.22,0
0.041318,0.0065908,0.031634,-0.00042255,0.0093635,-0.00041125,0,0,0.057904,-0.025444,0,-0.0021385,0,0,0,0.03164,-0.00042783,0.0093635,-0.7349,0.013525,0.028464,7.2932e-07,0.85,0.22,0
0.041897,0.0066049,0.03163,-0.00042494,0.0093616,-0.00038497,0,0,0.057899,-0.025445,0,-0.0020019,0,0,0,0.031635,-0.00042958,0.0093616,-0.68799,0.013522,0.028462,7.2905e-07,0.86,0.22,0
0.042476,0.0066179,0.031627,-0.00042707,0.00936,-0.00035848,0,0,0.057894,-0.025446,0,-0.0018641,0,0,0,0.031631,-0.00043109,0.00936,-0.64068,0.01352,0.028459,7.2881e-07,0.87,0.22,0
0.043055,0.0066297,0.031624,-0.00042895,0.0093585,-0.00033178,0,0,0.05789,-0.025447,0,-0.0017252,0,0,0,0.031627,-0.0004324,0.0093585,-0.593,0.013518,0.028457,7.2859e-07,0.88,0.22,0
0.043634,0.0066405,0.031621,-0.00043062,0.0093572,-0.00030488,0,0,0.057886,-0.025448,0,-0.0015854,0,0,0,0.031624,-0.00043353,0.0093572,-0.54496,0.013516,0.028455,7.2839e-07,0.89,0.22,0
0.044213,0.0066503,0.031619,-0.00043208,0.009356,-0.00027781,0,0,0.057883,-0.025449,0,-0.0014446,0,0,0,0.031621,-0.0004345,0.009356,-0.49658,0.013514,0.028453,7.2821e-07,0.9,0.22,0
0.044791,0.006659,0.031617,-0.00043337,0.0093549,-0.00025055,0,0,0.05788,-0.02545,0,-0.0013029,0,0,0,0.031618,-0.00043534,0.0093549,-0.44789,0.013513,0.028451,7.2805e-07,0.91,0.22,0
0.04537,0.0066668,0.031615,-0.0004345,0.0093541,-0.00022314,0,0,0.057878,-0.02545,0,-0.0011603,0,0,0,0.031616,-0.00043606,0.0093541,-0.39891,0.013511,0.02845,7.2791e-07,0.92,0.22,0
0.045949,0.0066735,0.031613,-0.00043547,0.0093533,-0.00019558,0,0,0.057875,-0.025451,0,-0.001017,0,0,0,0.031614,-0.00043667,0.0093533,-0.34965,0.01351,0.028449,7.2779e-07,0.93,0.22,0
0.046528,0.0066794,0.031612,-0.00043629,0.0093526,-0.0001679,0,0,0.057874,-0.025451,0,-0.00087306,0,0,0,0.031613,-0.00043718,0.0093526,-0.30016,0.013509,0.028448,7.2769e-07,0.94,0.22,0
0.047107,0.0066843,0.031611,-0.00043698,0.0093521,-0.00014009,0,0,0.057872,-0.025452,0,-0.00072849,0,0,0,0.031611,-0.00043761,0.0093521,-0.25046,0.013509,0.028447,7.276e-07,0.95,0.22,0
0.047685,0.0066883,0.03161,-0.00043754,0.0093517,-0.00011219,0,0,0.057871,-0.025452,0,-0.00058341,0,0,0,0.03161,-0.00043794,0.0093517,-0.20059,0.013508,0.028446,7.2753e-07,0.96,0.22,0
0.048264,0.0066914,0.031609,-0.00043797,0.0093513,-8.4216e-05,0,0,0.05787,-0.025452,0,-0.00043792,0,0,0,0.031609,-0.0004382,0.0093513,-0.15057,0.013507,0.028446,7.2748e-07,0.97,0.22,0
0.048843,0.0066936,0.031609,-0.00043827,0.0093511,-5.6177e-05,0,0,0.057869,-0.025452,0,-0.00029212,0,0,0,0.031609,-0.00043838,0.0093511,-0.10044,0.013507,0.028445,7.2744e-07,0.98,0.22,0
0.049421,0.0066949,0.031608,-0.00043846,0.0093509,-2.5989e-05,0,0,0.057869,-0.025452,0,-0.00013514,0,0,0,0.031608,-0.00043849,0.0093509,-0.046467,0.013507,0.028445,7.2742e-07,0.99,0.22,0
0.049711,0.0066953,0.031608,-0.00043852,0.0093509,-9.8331e-06,0,0,0.057869,-0.025453,0,-5.1132e-05,0,0,0,0.031608,-0.00043853,0.0093509,-0.017581,0.013507,0.028445,7.2741e-07,1,0.22,0
0.00024891,0.0001385,0.033476,0.014026,0.01425,0.0053143,0,0,0.049986,-0.00058456,0,0.027635,0,0,0,0.034835,0.012666,0.01425,14.333,0.020584,0.021422,4.9561e-07,0,0.23,0
0.00049986,0.00027081,0.033516,0.013734,0.014175,0.0052479,0,0,0.050287,-0.0011461,0,0.027289,0,0,0,0.034826,0.012424,0.014175,13.986,0.020475,0.021581,5.0479e-07,0.01,0.23,0
0.0010057,0.00052326,0.033669,0.013206,0.014062,0.0050651,0,0,0.050977,-0.0022276,0,0.026339,0,0,0,0.034859,0.012015,0.014062,13.182,0.020312,0.021893,5.2322e-07,0.02,0.23,0
0.0015194,0.00075152,0.033896,0.012748,0.013993,0.0048341,0,0,0.051748,-0.0032382,0,0.025137,0,0,0,0.034954,0.01169,0.013993,12.297,0.020212,0.022202,5.4198e-07,0.03,0.23,0
0.0020407,0.00095539,0.034138,0.012317,0.013936,0.0045977,0,0,0.052523,-0.0042097,0,0.023908,0,0,0,0.035072,0.011383,0.013936,11.44,0.02013,0.022521,5.6161e-07,0.04,0.23,0
0.0025699,0.0011338,0.034391,0.011889,0.013884,0.0043442,0,0,0.053319,-0.0051879,0,0.02259,0,0,0,0.035207,0.011073,0.013884,10.572,0.020055,0.022858,5.8268e-07,0.05,0.23,0
0.0031071,0.001285,0.034625,0.011452,0.013823,0.0040532,0,0,0.054085,-0.0061645,0,0.021076,0,0,0,0.03532,0.010757,0.013823,9.6605,0.019967,0.023183,6.032e-07,0.06,0.23,0
0.0036515,0.0014036,0.035205,0.011077,0.013885,0.0037971,0,0,0.054157,-0.0070716,0,0.019372,0,0,0,0.035794,0.010488,0.013885,8.7822,0.020056,0.023792,6.6129e-07,0.07,0.23,0
0.004194,0.0014878,0.036097,0.010671,0.01403,0.0034707,0,0,0.05146,-0.0076761,0,0.01659,0,0,0,0.036579,0.010189,0.01403,7.694,0.020266,0.024696,7.6244e-07,0.08,0.23,0
0.0046945,0.0015606,0.035694,0.0097729,0.01364,0.002649,0,0,0.044635,-0.0075753,0,0.011333,0,0,0,0.036006,0.0094613,0.01364,5.7253,0.019702,0.024726,7.7455e-07,0.09,0.23,0
0.0050993,0.0016483,0.034704,0.0087785,0.013045,0.0017269,0,0,0.036238,-0.0068745,0,0.0060199,0,0,0,0.034851,0.0086315,0.013045,3.7255,0.018842,0.024322,7.0944e-07,0.1,0.23,0
0.0054184,0.001747,0.035258,0.0084152,0.013102,0.001405,0,0,0.030863,-0.0064208,0,0.0038659,0,0,0,0.035339,0.0083343,0.013102,2.9706,0.018925,0.024968,7.1929e-07,0.11,0.23,0
0.0057131,0.0018427,0.0361,0.0081359,0.013271,0.0013345,0,0,0.029678,-0.0066752,0,0.0034696,0,0,0,0.036165,0.008071,0.013271,2.7319,0.019169,0.025889,7.7192e-07,0.12,0.23,0
0.006012,0.0019323,0.036271,0.0076118,0.013165,0.001157,0,0,0.030038,-0.007219,0,0.0030081,0,0,0,0.036319,0.007564,0.013165,2.3125,0.019016,0.026404,8.0393e-07,0.13,0.23,0
0.0063139,0.002016,0.036349,0.0071061,0.013036,0.00096289,0,0,0.030306,-0.0077094,0,0.0025035,0,0,0,0.036381,0.0070737,0.013036,1.8874,0.01883,0.026828,8.2888e-07,0.14,0.23,0
0.0066181,0.002094,0.036374,0.0066119,0.012896,0.00077425,0,0,0.030522,-0.0081689,0,0.002013,0,0,0,0.036395,0.0065911,0.012896,1.4923,0.018627,0.027205,8.4976e-07,0.15,0.23,0
0.0069243,0.0021665,0.036368,0.0061146,0.012745,0.00058607,0,0,0.03071,-0.0086193,0,0.0015238,0,0,0,0.03638,0.0061025,0.012745,1.1123,0.018409,0.027564,8.6851e-07,0.16,0.23,0
0.0072323,0.0022337,0.036346,0.0056361,0.012595,0.00039363,0,0,0.030877,-0.0090461,0,0.0010234,0,0,0,0.036352,0.0056304,0.012595,0.7369,0.018192,0.027899,8.8527e-07,0.17,0.23,0
0.0075418,0.0022956,0.036309,0.0051936,0.012451,0.00020177,0,0,0.031016,-0.0094345,0,0.00052461,0,0,0,0.036311,0.0051917,0.012451,0.37376,0.017985,0.0282,8.9948e-07,0.18,0.23,0
0.0078526,0.0023524,0.036258,0.0047857,0.012313,1.9992e-05,0,0,0.031128,-0.0097856,0,5.198e-05,0,0,0,0.036259,0.0047851,0.012313,0.038227,0.017786,0.028466,9.1118e-07,0.19,0.23,0
0.0081644,0.0024045,0.036194,0.0044028,0.012179,-0.00014636,0,0,0.031219,-0.010109,0,-0.00038054,0,0,0,0.036195,0.0044017,0.012179,-0.26227,0.017592,0.028706,9.2087e-07,0.2,0.23,0
0.008477,0.0024523,0.036122,0.0040388,0.012048,-0.00029575,0,0,0.031295,-0.010412,0,-0.00076895,0,0,0,0.036125,0.0040357,0.012048,-0.52689,0.017403,0.028928,9.2907e-07,0.21,0.23,0
0.0087903,0.0024961,0.036044,0.0036891,0.01192,-0.00042731,0,0,0.031361,-0.0107,0,-0.001111,0,0,0,0.03605,0.0036832,0.01192,-0.75553,0.017218,0.029135,9.362e-07,0.22,0.23,0
0.0091042,0.0025366,0.035964,0.0033472,0.011793,-0.00054059,0,0,0.031422,-0.01098,0,-0.0014055,0,0,0,0.035974,0.003338,0.011793,-0.94846,0.017035,0.029337,9.4268e-07,0.23,0.23,0
0.0094188,0.0025741,0.035885,0.0030048,0.011667,-0.00063696,0,0,0.031484,-0.011261,0,-0.0016561,0,0,0,0.035898,0.0029923,0.011667,-1.1087,0.016852,0.029539,9.4898e-07,0.24,0.23,0
0.0097339,0.0026091,0.035808,0.0026554,0.011539,-0.00072005,0,0,0.03155,-0.011549,0,-0.0018721,0,0,0,0.035824,0.0026396,0.011539,-1.243,0.016668,0.029751,9.5551e-07,0.25,0.23,0
0.01005,0.0026418,0.035736,0.002296,0.01141,-0.00079475,0,0,0.031624,-0.011848,0,-0.0020663,0,0,0,0.035755,0.002277,0.01141,-1.3601,0.016481,0.029974,9.6248e-07,0.26,0.23,0
0.010366,0.0026725,0.035668,0.001928,0.011279,-0.00086535,0,0,0.031706,-0.012156,0,-0.0022499,0,0,0,0.03569,0.0019057,0.011279,-1.4677,0.016292,0.030209,9.6986e-07,0.27,0.23,0
0.010684,0.0027012,0.035604,0.0015546,0.011148,-0.00093427,0,0,0.031793,-0.012471,0,-0.0024291,0,0,0,0.03563,0.0015289,0.011148,-1.57,0.016102,0.030453,9.7753e-07,0.28,0.23,0
0.011002,0.0027282,0.035544,0.0011786,0.011017,-0.0010022,0,0,0.031885,-0.01279,0,-0.0026057,0,0,0,0.035573,0.0011493,0.011017,-1.6685,0.015913,0.030704,9.8534e-07,0.29,0.23,0
0.011322,0.0027536,0.035486,0.00080109,0.010886,-0.001069,0,0,0.03198,-0.013111,0,-0.0027795,0,0,0,0.035519,0.00076809,0.010886,-1.7632,0.015724,0.030958,9.9311e-07,0.3,0.23,0
0.011642,0.0027775,0.035428,0.00042578,0.010756,-0.0011334,0,0,0.032074,-0.013429,0,-0.0029468,0,0,0,0.035465,0.00038904,0.010756,-1.8522,0.015537,0.031212,1.0005e-06,0.31,0.23,0
0.011963,0.0028001,0.03537,5.997e-05,0.010629,-0.0011885,0,0,0.032163,-0.01374,0,-0.0030902,0,0,0,0.03541,1.9942e-05,0.010629,-1.9253,0.015353,0.031457,1.0072e-06,0.32,0.23,0
0.012285,0.0028219,0.035314,-0.00029893,0.010505,-0.0012225,0,0,0.032253,-0.014045,0,-0.0031786,0,0,0,0.035356,-0.00034089,0.010505,-1.9636,0.015173,0.031698,1.0136e-06,0.33,0.23,0
0.012608,0.0028436,0.035262,-0.00067531,0.010376,-0.001228,0,0,0.032352,-0.014367,0,-0.0031929,0,0,0,0.035304,-0.00071727,0.010376,-1.9549,0.014988,0.031954,1.0202e-06,0.34,0.23,0
0.012932,0.0028658,0.035199,-0.0010975,0.01023,-0.0012081,0,0,0.032459,-0.014726,0,-0.003141,0,0,0,0.035239,-0.0011377,0.01023,-1.9046,0.014777,0.032233,1.0265e-06,0.35,0.23,0
0.013257,0.0028889,0.035103,-0.0015532,0.010065,-0.0011613,0,0,0.032549,-0.015103,0,-0.0030194,0,0,0,0.03514,-0.0015903,0.010065,-1.8133,0.014538,0.032509,1.0305e-06,0.36,0.23,0
0.013583,0.0029138,0.034973,-0.0020287,0.0098833,-0.0010747,0,0,0.032617,-0.015486,0,-0.0027942,0,0,0,0.035005,-0.0020606,0.0098833,-1.6631,0.014276,0.032769,1.0318e-06,0.37,0.23,0
0.01391,0.0029401,0.034306,-0.0024003,0.0095716,-0.00083664,0,0,0.034473,-0.016506,0,-0.0020822,0,0,0,0.034333,-0.0024276,0.0095716,-1.251,0.013826,0.032477,1.0025e-06,0.38,0.23,0
0.014269,0.0029787,0.033947,-0.0023306,0.0094849,-0.00063385,0,0,0.040926,-0.019288,0,-0.0017434,0,0,0,0.033975,-0.0023586,0.0094849,-0.8706,0.0137,0.032112,1.0188e-06,0.39,0.23,0
0.014727,0.0030723,0.035011,-0.0017797,0.0099694,-0.00075155,0,0,0.05067,-0.023362,0,-0.0028769,0,0,0,0.03504,-0.0018083,0.0099694,-1.0521,0.0144,0.032606,1.1287e-06,0.4,0.23,0
0.015296,0.0032445,0.035496,-0.00095553,0.010362,-0.00084278,0,0,0.058622,-0.026201,0,-0.0038246,0,0,0,0.035519,-0.00097896,0.010362,-1.2808,0.014968,0.032356,1.1201e-06,0.41,0.23,0
0.015915,0.0034483,0.034714,-0.00020482,0.010353,-0.0008082,0,0,0.061887,-0.026759,0,-0.0040663,0,0,0,0.034735,-0.00022554,0.010353,-1.3238,0.014954,0.031054,9.8148e-07,0.42,0.23,0
0.016538,0.0036328,0.03415,5.4161e-05,0.010261,-0.00090877,0,0,0.06211,-0.026538,0,-0.0047256,0,0,0,0.034176,2.7915e-05,0.010261,-1.5327,0.014822,0.030354,9.0646e-07,0.43,0.23,0
0.017157,0.0037945,0.033912,1.9229e-05,0.010179,-0.0010292,0,0,0.061705,-0.026417,0,-0.005352,0,0,0,0.033945,-1.3171e-05,0.010179,-1.7422,0.014704,0.030181,8.8887e-07,0.44,0.23,0
0.017772,0.0039421,0.033685,-2.1885e-05,0.010099,-0.0010718,0,0,0.061324,-0.026314,0,-0.0055733,0,0,0,0.03372,-5.678e-05,0.010099,-1.8225,0.014587,0.030016,8.7235e-07,0.45,0.23,0
0.018383,0.0040791,0.033475,-7.6874e-05,0.010019,-0.0010777,0,0,0.060985,-0.026251,0,-0.0056039,0,0,0,0.03351,-0.00011208,0.010019,-1.8402,0.014473,0.029874,8.576e-07,0.46,0.23,0
0.018992,0.0042078,0.033291,-0.00012096,0.0099512,-0.0010577,0,0,0.060685,-0.026188,0,-0.0055002,0,0,0,0.033325,-0.00015494,0.0099512,-1.8134,0.014374,0.029744,8.446e-07,0.47,0.23,0
0.019597,0.0043299,0.033126,-0.00014641,0.009894,-0.0010241,0,0,0.060404,-0.026105,0,-0.0053251,0,0,0,0.033158,-0.00017835,0.009894,-1.7629,0.014291,0.029614,8.3257e-07,0.48,0.23,0
0.0202,0.0044465,0.032975,-0.00015515,0.0098459,-0.00098739,0,0,0.060135,-0.026003,0,-0.0051344,0,0,0,0.033005,-0.00018494,0.0098459,-1.707,0.014222,0.029483,8.2121e-07,0.49,0.23,0
0.0208,0.0045581,0.032836,-0.00015219,0.0098052,-0.00095439,0,0,0.059881,-0.025889,0,-0.0049628,0,0,0,0.032864,-0.0001801,0.0098052,-1.657,0.014163,0.029354,8.1064e-07,0.5,0.23,0
0.021397,0.0046651,0.032711,-0.00014281,0.0097704,-0.00092808,0,0,0.059645,-0.025774,0,-0.004826,0,0,0,0.032737,-0.00016926,0.0097704,-1.6178,0.014113,0.029233,8.01e-07,0.51,0.23,0
0.021993,0.0047675,0.032599,-0.00013137,0.0097403,-0.00090908,0,0,0.059433,-0.025666,0,-0.0047272,0,0,0,0.032625,-0.00015679,0.0097403,-1.5906,0.014069,0.029123,7.9243e-07,0.52,0.23,0
0.022586,0.0048656,0.032501,-0.00012103,0.0097139,-0.00089664,0,0,0.059246,-0.025571,0,-0.0046625,0,0,0,0.032526,-0.00014581,0.0097139,-1.5739,0.014031,0.029026,7.8495e-07,0.53,0.23,0
0.023178,0.0049593,0.032415,-0.00011382,0.0096905,-0.0008894,0,0,0.059085,-0.025491,0,-0.0046249,0,0,0,0.03244,-0.00013823,0.0096905,-1.5656,0.013997,0.028944,7.7856e-07,0.54,0.23,0
0.023768,0.0050486,0.032342,-0.00011078,0.0096693,-0.0008858,0,0,0.058948,-0.025428,0,-0.0046061,0,0,0,0.032366,-0.00013503,0.0096693,-1.5628,0.013967,0.028875,7.7318e-07,0.55,0.23,0
0.024356,0.0051336,0.032279,-0.00011229,0.0096499,-0.00088438,0,0,0.058835,-0.025382,0,-0.0045988,0,0,0,0.032303,-0.00013648,0.0096499,-1.5632,0.013939,0.02882,7.687e-07,0.56,0.23,0
0.024944,0.0052146,0.032225,-0.0001182,0.009632,-0.0008839,0,0,0.058741,-0.02535,0,-0.0045963,0,0,0,0.032249,-0.00014239,0.009632,-1.5646,0.013913,0.028777,7.6502e-07,0.57,0.23,0
0.025531,0.0052914,0.032179,-0.00012808,0.0096152,-0.00088333,0,0,0.058665,-0.025333,0,-0.0045933,0,0,0,0.032203,-0.00015225,0.0096152,-1.5653,0.013889,0.028744,7.62e-07,0.58,0.23,0
0.026118,0.0053643,0.03214,-0.00014129,0.0095995,-0.00088194,0,0,0.058604,-0.025326,0,-0.0045861,0,0,0,0.032164,-0.0001654,0.0095995,-1.5641,0.013866,0.02872,7.5954e-07,0.59,0.23,0
0.026703,0.0054335,0.032106,-0.00015714,0.0095846,-0.00087918,0,0,0.058555,-0.025328,0,-0.0045718,0,0,0,0.03213,-0.0001811,0.0095846,-1.56,0.013844,0.028702,7.5752e-07,0.6,0.23,0
0.027289,0.0054991,0.032076,-0.00017493,0.0095704,-0.00087473,0,0,0.058515,-0.025338,0,-0.0045486,0,0,0,0.0321,-0.00019865,0.0095704,-1.5527,0.013824,0.02869,7.5587e-07,0.61,0.23,0
0.027874,0.0055612,0.03205,-0.00019399,0.009557,-0.0008684,0,0,0.058483,-0.025352,0,-0.0045157,0,0,0,0.032074,-0.00021737,0.009557,-1.5417,0.013804,0.028682,7.5449e-07,0.62,0.23,0
0.028458,0.00562,0.032028,-0.00021373,0.0095441,-0.00086013,0,0,0.058457,-0.02537,0,-0.0044727,0,0,0,0.03205,-0.00023667,0.0095441,-1.5272,0.013786,0.028676,7.5331e-07,0.63,0.23,0
0.029043,0.0056758,0.032007,-0.00023364,0.009532,-0.00084996,0,0,0.058435,-0.025391,0,-0.0044198,0,0,0,0.032029,-0.00025604,0.009532,-1.5092,0.013768,0.028673,7.523e-07,0.64,0.23,0
0.029627,0.0057285,0.031988,-0.00025331,0.0095204,-0.00083797,0,0,0.058416,-0.025412,0,-0.0043574,0,0,0,0.03201,-0.00027509,0.0095204,-1.4879,0.013752,0.028671,7.5139e-07,0.65,0.23,0
0.030211,0.0057784,0.03197,-0.00027241,0.0095094,-0.00082429,0,0,0.058399,-0.025433,0,-0.0042863,0,0,0,0.031991,-0.00029348,0.0095094,-1.4636,0.013736,0.028669,7.5056e-07,0.66,0.23,0
0.030795,0.0058257,0.031954,-0.00029068,0.009499,-0.00080908,0,0,0.058383,-0.025453,0,-0.0042072,0,0,0,0.031974,-0.00031098,0.009499,-1.4366,0.013721,0.028668,7.4978e-07,0.67,0.23,0
0.031379,0.0058703,0.031938,-0.00030794,0.0094891,-0.00079249,0,0,0.058368,-0.025472,0,-0.0041209,0,0,0,0.031958,-0.00032742,0.0094891,-1.4071,0.013707,0.028667,7.4903e-07,0.68,0.23,0
0.031962,0.0059126,0.031924,-0.00032409,0.0094799,-0.00077468,0,0,0.058354,-0.02549,0,-0.0040284,0,0,0,0.031942,-0.0003427,0.0094799,-1.3755,0.013693,0.028665,7.483e-07,0.69,0.23,0
0.032546,0.0059526,0.031909,-0.00033905,0.0094711,-0.00075581,0,0,0.05834,-0.025506,0,-0.0039302,0,0,0,0.031927,-0.00035676,0.0094711,-1.342,0.013681,0.028663,7.4759e-07,0.7,0.23,0
0.033129,0.0059903,0.031896,-0.0003528,0.0094629,-0.00073602,0,0,0.058326,-0.025521,0,-0.0038273,0,0,0,0.031913,-0.0003696,0.0094629,-1.3069,0.013669,0.02866,7.4689e-07,0.71,0.23,0
0.033712,0.006026,0.031883,-0.00036535,0.0094553,-0.00071542,0,0,0.058312,-0.025534,0,-0.0037202,0,0,0,0.031899,-0.00038122,0.0094553,-1.2704,0.013658,0.028657,7.4619e-07,0.72,0.23,0
0.034295,0.0060597,0.03187,-0.00037674,0.0094481,-0.00069414,0,0,0.058298,-0.025545,0,-0.0036095,0,0,0,0.031885,-0.00039169,0.0094481,-1.2326,0.013647,0.028654,7.4551e-07,0.73,0.23,0
0.034878,0.0060914,0.031858,-0.00038703,0.0094414,-0.00067225,0,0,0.058284,-0.025554,0,-0.0034957,0,0,0,0.031872,-0.00040105,0.0094414,-1.1939,0.013638,0.02865,7.4483e-07,0.74,0.23,0
0.035461,0.0061214,0.031847,-0.00039627,0.0094352,-0.00064984,0,0,0.058271,-0.025562,0,-0.0033792,0,0,0,0.03186,-0.00040938,0.0094352,-1.1542,0.013629,0.028645,7.4417e-07,0.75,0.23,0
0.036044,0.0061496,0.031836,-0.00040456,0.0094294,-0.00062698,0,0,0.058257,-0.025568,0,-0.0032603,0,0,0,0.031848,-0.00041676,0.0094294,-1.1137,0.01362,0.028641,7.4352e-07,0.76,0.23,0
0.036626,0.0061761,0.031826,-0.00041197,0.0094241,-0.00060371,0,0,0.058244,-0.025574,0,-0.0031393,0,0,0,0.031837,-0.00042328,0.0094241,-1.0725,0.013613,0.028636,7.4289e-07,0.77,0.23,0
0.037209,0.0062011,0.031816,-0.00041858,0.0094192,-0.00058008,0,0,0.058231,-0.025578,0,-0.0030164,0,0,0,0.031826,-0.00042902,0.0094192,-1.0307,0.013605,0.028631,7.4228e-07,0.78,0.23,0
0.037791,0.0062244,0.031806,-0.00042446,0.0094146,-0.00055611,0,0,0.058219,-0.025582,0,-0.0028918,0,0,0,0.031816,-0.00043407,0.0094146,-0.98824,0.013599,0.028626,7.4169e-07,0.79,0.23,0
0.038373,0.0062463,0.031798,-0.0004297,0.0094104,-0.00053184,0,0,0.058207,-0.025584,0,-0.0027656,0,0,0,0.031807,-0.00043849,0.0094104,-0.94524,0.013593,0.028621,7.4113e-07,0.8,0.23,0
0.038955,0.0062668,0.03179,-0.00043436,0.0094066,-0.00050728,0,0,0.058196,-0.025586,0,-0.0026379,0,0,0,0.031798,-0.00044236,0.0094066,-0.90172,0.013587,0.028616,7.406e-07,0.81,0.23,0
0.039537,0.0062859,0.031782,-0.00043851,0.009403,-0.00048245,0,0,0.058185,-0.025588,0,-0.0025087,0,0,0,0.031789,-0.00044574,0.009403,-0.8577,0.013582,0.028611,7.401e-07,0.82,0.23,0
0.040119,0.0063037,0.031775,-0.00044221,0.0093998,-0.00045736,0,0,0.058175,-0.025589,0,-0.0023783,0,0,0,0.031781,-0.00044871,0.0093998,-0.81319,0.013578,0.028607,7.3963e-07,0.83,0.23,0
0.0407,0.0063203,0.031768,-0.0004455,0.0093969,-0.00043201,0,0,0.058166,-0.02559,0,-0.0022464,0,0,0,0.031774,-0.00045131,0.0093969,-0.76822,0.013573,0.028603,7.3919e-07,0.84,0.23,0
0.041282,0.0063356,0.031763,-0.00044845,0.0093942,-0.00040641,0,0,0.058158,-0.025591,0,-0.0021133,0,0,0,0.031768,-0.00045358,0.0093942,-0.72279,0.013569,0.028599,7.3879e-07,0.85,0.23,0
0.041864,0.0063497,0.031757,-0.00045107,0.0093918,-0.00038058,0,0,0.05815,-0.025591,0,-0.001979,0,0,0,0.031762,-0.00045558,0.0093918,-0.67692,0.013566,0.028595,7.3841e-07,0.86,0.23,0
0.042445,0.0063627,0.031752,-0.00045342,0.0093896,-0.00035451,0,0,0.058143,-0.025592,0,-0.0018435,0,0,0,0.031756,-0.00045733,0.0093896,-0.63062,0.013563,0.028591,7.3807e-07,0.87,0.23,0
0.043026,0.0063745,0.031748,-0.00045551,0.0093877,-0.00032822,0,0,0.058136,-0.025592,0,-0.0017067,0,0,0,0.031751,-0.00045887,0.0093877,-0.58391,0.01356,0.028588,7.3776e-07,0.88,0.23,0
0.043608,0.0063853,0.031744,-0.00045738,0.0093859,-0.00030171,0,0,0.05813,-0.025592,0,-0.0015689,0,0,0,0.031747,-0.00046021,0.0093859,-0.5368,0.013557,0.028585,7.3748e-07,0.89,0.23,0
0.044189,0.0063951,0.03174,-0.00045903,0.0093843,-0.000275,0,0,0.058125,-0.025593,0,-0.00143,0,0,0,0.031742,-0.00046139,0.0093843,-0.48931,0.013555,0.028582,7.3723e-07,0.9,0.23,0
0.04477,0.0064038,0.031737,-0.0004605,0.0093829,-0.0002481,0,0,0.058121,-0.025593,0,-0.0012901,0,0,0,0.031739,-0.00046242,0.0093829,-0.44147,0.013553,0.02858,7.37e-07,0.91,0.23,0
0.045351,0.0064115,0.031734,-0.00046179,0.0093817,-0.00022102,0,0,0.058117,-0.025593,0,-0.0011493,0,0,0,0.031736,-0.00046332,0.0093817,-0.39331,0.013551,0.028578,7.3681e-07,0.92,0.23,0
0.045933,0.0064183,0.031732,-0.00046291,0.0093807,-0.00019377,0,0,0.058113,-0.025593,0,-0.0010076,0,0,0,0.031733,-0.00046409,0.0093807,-0.34484,0.01355,0.028576,7.3664e-07,0.93,0.23,0
0.046514,0.0064242,0.03173,-0.00046387,0.0093798,-0.00016637,0,0,0.05811,-0.025594,0,-0.00086515,0,0,0,0.031731,-0.00046474,0.0093798,-0.2961,0.013549,0.028575,7.3649e-07,0.94,0.23,0
0.047095,0.0064291,0.031728,-0.00046467,0.0093791,-0.00013885,0,0,0.058108,-0.025594,0,-0.00072202,0,0,0,0.031729,-0.00046528,0.0093791,-0.24712,0.013548,0.028573,7.3637e-07,0.95,0.23,0
0.047676,0.006433,0.031727,-0.00046532,0.0093785,-0.00011122,0,0,0.058106,-0.025594,0,-0.00057832,0,0,0,0.031727,-0.00046572,0.0093785,-0.19794,0.013547,0.028572,7.3627e-07,0.96,0.23,0
0.048257,0.0064361,0.031726,-0.00046582,0.009378,-8.3491e-05,0,0,0.058104,-0.025594,0,-0.00043415,0,0,0,0.031726,-0.00046605,0.009378,-0.1486,0.013546,0.028572,7.362e-07,0.97,0.23,0
0.048838,0.0064383,0.031725,-0.00046618,0.0093777,-5.5699e-05,0,0,0.058103,-0.025594,0,-0.00028963,0,0,0,0.031725,-0.00046629,0.0093777,-0.099138,0.013546,0.028571,7.3614e-07,0.98,0.23,0
0.049419,0.0064397,0.031725,-0.0004664,0.0093775,-2.5753e-05,0,0,0.058103,-0.025594,0,-0.00013391,0,0,0,0.031725,-0.00046643,0.0093775,-0.045838,0.013545,0.028571,7.3611e-07,0.99,0.23,0
0.04971,0.0064401,0.031725,-0.00046647,0.0093774,-9.717e-06,0,0,0.058102,-0.025594,0,-5.0529e-05,0,0,0,0.031725,-0.00046648,0.0093774,-0.017296,0.013545,0.028571,7.361e-07,1,0.23,0
0.00025433,0.00013235,0.034201,0.014304,0.014552,0.0050777,0,0,0.051089,-0.00064285,0,0.026404,0,0,0,0.035425,0.013081,0.014552,13.526,0.021019,0.021647,5.1282e-07,0,0.24,0
0.00051089,0.00025881,0.034245,0.01399,0.01447,0.0050131,0,0,0.051413,-0.0012488,0,0.026068,0,0,0,0.035422,0.012813,0.01447,13.179,0.020902,0.021828,5.2379e-07,0.01,0.24,0
0.0010283,0.0005001,0.03441,0.013433,0.014353,0.0048341,0,0,0.052149,-0.0023926,0,0.025137,0,0,0,0.035476,0.012367,0.014353,12.385,0.020732,0.022183,5.4566e-07,0.02,0.24,0
0.0015539,0.00071815,0.034656,0.012977,0.01429,0.0046013,0,0,0.052951,-0.0034128,0,0.023927,0,0,0,0.035596,0.012036,0.01429,11.513,0.020641,0.022519,5.669e-07,0.03,0.24,0
0.0020873,0.00091235,0.034922,0.012581,0.014251,0.0043451,0,0,0.053746,-0.0043424,0,0.022594,0,0,0,0.035743,0.01176,0.014251,10.639,0.020585,0.02284,5.8764e-07,0.04,0.24,0
0.0026288,0.0010809,0.03527,0.012228,0.014249,0.0040412,0,0,0.054654,-0.0052555,0,0.021014,0,0,0,0.035965,0.011533,0.014249,9.678,0.020583,0.023195,6.1157e-07,0.05,0.24,0
0.0031803,0.0012219,0.035729,0.011864,0.014278,0.0036815,0,0,0.055772,-0.0062762,0,0.019144,0,0,0,0.036295,0.011298,0.014278,8.5942,0.020623,0.023649,6.4375e-07,0.06,0.24,0
0.0037442,0.0013327,0.03681,0.011544,0.014506,0.0035004,0,0,0.054533,-0.0070472,0,0.017148,0,0,0,0.037298,0.011056,0.014506,7.7856,0.020953,0.024702,7.5221e-07,0.07,0.24,0
0.0042786,0.0014153,0.037518,0.011051,0.014571,0.0031852,0,0,0.047653,-0.0069531,0,0.013579,0,0,0,0.037925,0.010643,0.014571,6.7612,0.021046,0.025551,8.6255e-07,0.08,0.24,0
0.004712,0.0014919,0.036561,0.010126,0.014006,0.0022729,0,0,0.038352,-0.006363,0,0.0081453,0,0,0,0.036794,0.0098936,0.014006,4.8012,0.020231,0.025101,8.1692e-07,0.09,0.24,0
0.0050505,0.0015844,0.035995,0.0093104,0.013592,0.0015676,0,0,0.032356,-0.0060947,0,0.0045721,0,0,0,0.036098,0.0092075,0.013592,3.3215,0.019632,0.02499,7.5839e-07,0.1,0.24,0
0.0053552,0.001684,0.036496,0.0088463,0.013603,0.0014131,0,0,0.030343,-0.0062826,0,0.0037198,0,0,0,0.036571,0.0087716,0.013603,2.9101,0.019648,0.025727,7.8167e-07,0.11,0.24,0
0.0056557,0.0017761,0.036655,0.0083664,0.013507,0.0012904,0,0,0.030093,-0.0066822,0,0.003355,0,0,0,0.036715,0.0083067,0.013507,2.609,0.019509,0.026199,8.0255e-07,0.12,0.24,0
0.005957,0.0018607,0.036569,0.0078232,0.013318,0.0011228,0,0,0.030227,-0.0071428,0,0.0029192,0,0,0,0.036613,0.0077788,0.013318,2.2363,0.019237,0.026503,8.1712e-07,0.13,0.24,0
0.0062602,0.0019395,0.036547,0.0072992,0.013154,0.00095839,0,0,0.030411,-0.0076109,0,0.0024918,0,0,0,0.036579,0.0072672,0.013154,1.8778,0.019,0.026857,8.3595e-07,0.14,0.24,0
0.0065652,0.0020128,0.036528,0.006793,0.012996,0.00078486,0,0,0.030591,-0.0080643,0,0.0020406,0,0,0,0.036549,0.0067717,0.012996,1.5137,0.018772,0.027205,8.5432e-07,0.15,0.24,0
0.006872,0.0020809,0.0365,0.0063006,0.01284,0.00060818,0,0,0.030758,-0.0085015,0,0.0015813,0,0,0,0.036513,0.0062878,0.01284,1.1559,0.018547,0.02754,8.7141e-07,0.16,0.24,0
0.0071804,0.0021439,0.036462,0.0058262,0.012686,0.0004297,0,0,0.030908,-0.0089181,0,0.0011172,0,0,0,0.036468,0.0058196,0.012686,0.80583,0.018325,0.027858,8.8691e-07,0.17,0.24,0
0.0074902,0.0022019,0.036412,0.0053775,0.012537,0.00025309,0,0,0.031038,-0.0093074,0,0.00065804,0,0,0,0.036415,0.0053748,0.012537,0.4693,0.018109,0.028151,9.0052e-07,0.18,0.24,0
0.0078012,0.0022552,0.036352,0.0049556,0.012392,8.3738e-05,0,0,0.031148,-0.0096678,0,0.00021772,0,0,0,0.036353,0.0049549,0.012392,0.15459,0.0179,0.028419,9.1216e-07,0.19,0.24,0
0.0081131,0.0023039,0.036282,0.0045572,0.012252,-7.376e-05,0,0,0.031239,-0.010003,0,-0.00019178,0,0,0,0.036283,0.0045565,0.012252,-0.13173,0.017697,0.028664,9.2201e-07,0.2,0.24,0
0.008426,0.0023486,0.036204,0.004177,0.012114,-0.00021679,0,0,0.031317,-0.010319,0,-0.00056365,0,0,0,0.036206,0.0041752,0.012114,-0.38658,0.017499,0.028892,9.3041e-07,0.21,0.24,0
0.0087395,0.0023896,0.036121,0.0038102,0.011979,-0.00034426,0,0,0.031384,-0.01062,0,-0.00089508,0,0,0,0.036125,0.0038062,0.011979,-0.60936,0.017304,0.029106,9.3775e-07,0.22,0.24,0
0.0090536,0.0024272,0.036036,0.003451,0.011846,-0.00045626,0,0,0.031446,-0.010913,0,-0.0011863,0,0,0,0.036042,0.0034444,0.011846,-0.80123,0.017111,0.029315,9.444e-07,0.23,0.24,0
0.0093684,0.0024618,0.03595,0.0030939,0.011713,-0.00055423,0,0,0.031508,-0.011205,0,-0.001441,0,0,0,0.035959,0.0030843,0.011713,-0.96542,0.016919,0.029522,9.5074e-07,0.24,0.24,0
0.0096838,0.0024939,0.035865,0.0027341,0.01158,-0.00064094,0,0,0.031571,-0.0115,0,-0.0016664,0,0,0,0.035878,0.0027215,0.01158,-1.1072,0.016726,0.029734,9.5705e-07,0.25,0.24,0
0.0099998,0.0025236,0.035784,0.0023691,0.011446,-0.00071985,0,0,0.031639,-0.0118,0,-0.0018716,0,0,0,0.0358,0.0023534,0.011446,-1.233,0.016533,0.029954,9.6352e-07,0.26,0.24,0
0.010317,0.0025511,0.035705,0.0019987,0.011311,-0.00079421,0,0,0.031712,-0.012106,0,-0.0020649,0,0,0,0.035724,0.0019798,0.011311,-1.3484,0.016338,0.030181,9.7018e-07,0.27,0.24,0
0.010634,0.0025768,0.03563,0.0016241,0.011176,-0.00086625,0,0,0.03179,-0.012418,0,-0.0022522,0,0,0,0.035652,0.0016019,0.011176,-1.4577,0.016143,0.030415,9.7696e-07,0.28,0.24,0
0.010952,0.0026006,0.035557,0.0012467,0.011041,-0.00093693,0,0,0.03187,-0.012733,0,-0.002436,0,0,0,0.035582,0.001221,0.011041,-1.5625,0.015948,0.030655,9.8376e-07,0.29,0.24,0
0.011271,0.0026228,0.035485,0.00086817,0.010906,-0.0010058,0,0,0.031953,-0.013049,0,-0.0026152,0,0,0,0.035515,0.00083885,0.010906,-1.6624,0.015753,0.030898,9.9044e-07,0.3,0.24,0
0.011591,0.0026435,0.035415,0.00048993,0.010771,-0.0010705,0,0,0.032037,-0.013366,0,-0.0027832,0,0,0,0.035448,0.00045705,0.010771,-1.7534,0.015559,0.031142,9.9692e-07,0.31,0.24,0
0.011912,0.002663,0.035348,0.00011184,0.010638,-0.0011255,0,0,0.032123,-0.013684,0,-0.0029264,0,0,0,0.035384,7.5848e-05,0.010638,-1.8273,0.015366,0.03139,1.0033e-06,0.32,0.24,0
0.012234,0.0026816,0.035288,-0.00027232,0.010505,-0.0011642,0,0,0.032218,-0.01401,0,-0.0030269,0,0,0,0.035326,-0.00031044,0.010505,-1.8729,0.015173,0.031647,1.01e-06,0.33,0.24,0
0.012557,0.0026999,0.035238,-0.00067596,0.010369,-0.0011809,0,0,0.03233,-0.014358,0,-0.0030703,0,0,0,0.035277,-0.00071478,0.010369,-1.8812,0.014977,0.031927,1.0177e-06,0.34,0.24,0
0.012881,0.0027184,0.035207,-0.0011084,0.010229,-0.0011713,0,0,0.03247,-0.014739,0,-0.0030455,0,0,0,0.035244,-0.0011462,0.010229,-1.8459,0.014776,0.032245,1.0272e-06,0.35,0.24,0
0.013206,0.0027376,0.035222,-0.0015674,0.010096,-0.0011279,0,0,0.032663,-0.015163,0,-0.0029325,0,0,0,0.035256,-0.0016021,0.010096,-1.7551,0.014584,0.032623,1.0411e-06,0.36,0.24,0
0.013534,0.0027579,0.035344,-0.0020739,0.0099811,-0.0010794,0,0,0.032972,-0.015671,0,-0.0028064,0,0,0,0.035376,-0.0021053,0.0099811,-1.6516,0.014417,0.033135,1.0655e-06,0.37,0.24,0
0.013865,0.0027772,0.035303,-0.0024492,0.0098561,-0.00097252,0,0,0.03374,-0.016301,0,-0.0024987,0,0,0,0.035331,-0.0024777,0.0098561,-1.4519,0.014237,0.033397,1.0841e-06,0.38,0.24,0
0.014207,0.0027978,0.035026,-0.0023541,0.0098016,-0.00069584,0,0,0.036457,-0.017452,0,-0.0017149,0,0,0,0.035049,-0.002377,0.0098016,-0.97416,0.014158,0.033065,1.0985e-06,0.39,0.24,0
0.01459,0.0028546,0.035696,-0.0019607,0.010121,-0.00058606,0,0,0.043455,-0.020126,0,-0.0016513,0,0,0,0.035719,-0.0019837,0.010121,-0.74676,0.014619,0.033349,1.2005e-06,0.4,0.24,0
0.015081,0.0029903,0.036632,-0.0012076,0.010627,-0.00063158,0,0,0.053906,-0.023872,0,-0.0021907,0,0,0,0.036656,-0.0012323,0.010627,-0.84233,0.01535,0.033585,1.2558e-06,0.41,0.24,0
0.015684,0.0031806,0.036023,-0.00015306,0.010761,-0.00049022,0,0,0.06173,-0.026325,0,-0.0021254,0,0,0,0.03604,-0.00016934,0.010761,-0.7392,0.015544,0.032177,1.1051e-06,0.42,0.24,0
0.016324,0.0033654,0.035034,0.00029035,0.010597,-0.00051469,0,0,0.063536,-0.026798,0,-0.0026764,0,0,0,0.035047,0.00027761,0.010597,-0.85691,0.015307,0.030929,9.699e-07,0.43,0.24,0
0.016955,0.0035284,0.034564,0.0001693,0.01042,-0.00072013,0,0,0.062774,-0.026652,0,-0.0037447,0,0,0,0.034581,0.00015167,0.01042,-1.203,0.015051,0.030616,9.3483e-07,0.44,0.24,0
0.017579,0.0036771,0.034196,3.4133e-05,0.010269,-0.00082678,0,0,0.06221,-0.026611,0,-0.0042993,0,0,0,0.034217,1.2857e-05,0.010269,-1.3882,0.014833,0.030402,9.0932e-07,0.45,0.24,0
0.018199,0.0038146,0.033927,-7.6714e-05,0.010155,-0.00086913,0,0,0.061806,-0.026602,0,-0.0045195,0,0,0,0.03395,-9.976e-05,0.010155,-1.4655,0.014668,0.030255,8.913e-07,0.46,0.24,0
0.018815,0.0039439,0.033704,-0.00014494,0.010068,-0.00086816,0,0,0.061454,-0.026553,0,-0.0045144,0,0,0,0.033727,-0.00016791,0.010068,-1.4703,0.014542,0.030111,8.7574e-07,0.47,0.24,0
0.019428,0.004067,0.033503,-0.00017656,0.0099978,-0.00084866,0,0,0.061112,-0.026453,0,-0.004413,0,0,0,0.033525,-0.00019855,0.0099978,-1.4443,0.014441,0.029956,8.6091e-07,0.48,0.24,0
0.020037,0.0041847,0.033318,-0.00018224,0.0099407,-0.00082643,0,0,0.06078,-0.02632,0,-0.0042974,0,0,0,0.033339,-0.00020313,0.0099407,-1.4138,0.014359,0.029794,8.468e-07,0.49,0.24,0
0.020644,0.0042976,0.03315,-0.00017241,0.0098933,-0.00080906,0,0,0.060468,-0.026171,0,-0.0042071,0,0,0,0.03317,-0.00019246,0.0098933,-1.3912,0.01429,0.029636,8.3374e-07,0.5,0.24,0
0.021247,0.0044059,0.033,-0.00015545,0.0098535,-0.00079904,0,0,0.060182,-0.026023,0,-0.004155,0,0,0,0.03302,-0.00017502,0.0098535,-1.3807,0.014233,0.029489,8.2201e-07,0.51,0.24,0
0.021847,0.0045096,0.032869,-0.00013732,0.0098195,-0.00079615,0,0,0.059929,-0.025888,0,-0.00414,0,0,0,0.032888,-0.00015677,0.0098195,-1.3818,0.014184,0.029357,8.1175e-07,0.52,0.24,0
0.022445,0.0046088,0.032755,-0.00012187,0.0097899,-0.00079897,0,0,0.059709,-0.025771,0,-0.0041546,0,0,0,0.032775,-0.00014147,0.0097899,-1.392,0.014141,0.029244,8.0296e-07,0.53,0.24,0
0.023041,0.0047033,0.032657,-0.00011126,0.0097638,-0.00080564,0,0,0.059523,-0.025675,0,-0.0041893,0,0,0,0.032677,-0.00013119,0.0097638,-1.4081,0.014103,0.029149,7.9556e-07,0.54,0.24,0
0.023636,0.0047933,0.032574,-0.00010642,0.0097402,-0.00081437,0,0,0.059367,-0.025601,0,-0.0042347,0,0,0,0.032594,-0.0001268,0.0097402,-1.4271,0.014069,0.029072,7.8941e-07,0.55,0.24,0
0.024229,0.0048789,0.032503,-0.00010747,0.0097187,-0.00082364,0,0,0.059239,-0.025548,0,-0.0042829,0,0,0,0.032524,-0.00012833,0.0097187,-1.4463,0.014038,0.02901,7.8435e-07,0.56,0.24,0
0.024821,0.0049602,0.032443,-0.00011398,0.0096986,-0.00083221,0,0,0.059135,-0.025513,0,-0.0043275,0,0,0,0.032464,-0.00013529,0.0096986,-1.4636,0.014009,0.028963,7.8022e-07,0.57,0.24,0
0.025411,0.0050372,0.032391,-0.00012522,0.0096799,-0.00083919,0,0,0.05905,-0.025493,0,-0.0043638,0,0,0,0.032413,-0.00014691,0.0096799,-1.4776,0.013982,0.028927,7.7685e-07,0.58,0.24,0
0.026002,0.0051102,0.032347,-0.00014032,0.0096622,-0.00084398,0,0,0.058982,-0.025486,0,-0.0043887,0,0,0,0.032369,-0.00016226,0.0096622,-1.4874,0.013956,0.0289,7.741e-07,0.59,0.24,0
0.026591,0.0051794,0.032309,-0.00015836,0.0096453,-0.00084622,0,0,0.058927,-0.02549,0,-0.0044004,0,0,0,0.032331,-0.00018043,0.0096453,-1.4922,0.013932,0.028881,7.7184e-07,0.6,0.24,0
0.02718,0.0052449,0.032276,-0.00017848,0.0096293,-0.00084576,0,0,0.058882,-0.0255,0,-0.004398,0,0,0,0.032298,-0.00020052,0.0096293,-1.492,0.013909,0.028867,7.6996e-07,0.61,0.24,0
0.027769,0.0053069,0.032246,-0.00019988,0.009614,-0.00084259,0,0,0.058844,-0.025516,0,-0.0043815,0,0,0,0.032268,-0.00022176,0.009614,-1.4867,0.013887,0.028858,7.6836e-07,0.62,0.24,0
0.028357,0.0053655,0.03222,-0.00022188,0.0095993,-0.0008368,0,0,0.058813,-0.025535,0,-0.0043514,0,0,0,0.032241,-0.00024347,0.0095993,-1.4767,0.013866,0.028851,7.6698e-07,0.63,0.24,0
0.028945,0.005421,0.032195,-0.00024392,0.0095854,-0.00082857,0,0,0.058786,-0.025556,0,-0.0043086,0,0,0,0.032216,-0.00026508,0.0095854,-1.4623,0.013846,0.028847,7.6575e-07,0.64,0.24,0
0.029533,0.0054735,0.032173,-0.00026553,0.0095721,-0.0008181,0,0,0.058761,-0.025578,0,-0.0042541,0,0,0,0.032193,-0.00028616,0.0095721,-1.4439,0.013826,0.028843,7.6462e-07,0.65,0.24,0
0.03012,0.0055232,0.032151,-0.00028638,0.0095595,-0.00080562,0,0,0.058739,-0.025599,0,-0.0041892,0,0,0,0.032171,-0.00030638,0.0095595,-1.4219,0.013808,0.02884,7.6357e-07,0.66,0.24,0
0.030708,0.0055703,0.032131,-0.0003062,0.0095475,-0.00079137,0,0,0.058718,-0.02562,0,-0.0041151,0,0,0,0.032151,-0.0003255,0.0095475,-1.3969,0.013791,0.028836,7.6256e-07,0.67,0.24,0
0.031295,0.0056148,0.032112,-0.00032482,0.0095362,-0.00077559,0,0,0.058697,-0.025639,0,-0.0040331,0,0,0,0.032131,-0.00034336,0.0095362,-1.3691,0.013774,0.028833,7.6159e-07,0.68,0.24,0
0.031881,0.0056569,0.032094,-0.00034213,0.0095255,-0.00075847,0,0,0.058677,-0.025656,0,-0.0039441,0,0,0,0.032111,-0.00035987,0.0095255,-1.3389,0.013759,0.028829,7.6063e-07,0.69,0.24,0
0.032468,0.0056967,0.032076,-0.0003581,0.0095154,-0.00074023,0,0,0.058658,-0.025671,0,-0.0038492,0,0,0,0.032093,-0.000375,0.0095154,-1.3068,0.013744,0.028825,7.5969e-07,0.7,0.24,0
0.033055,0.0057343,0.032059,-0.00037272,0.0095058,-0.00072102,0,0,0.058638,-0.025684,0,-0.0037493,0,0,0,0.032075,-0.00038875,0.0095058,-1.2731,0.013731,0.02882,7.5876e-07,0.71,0.24,0
0.033641,0.0057698,0.032042,-0.00038601,0.0094969,-0.00070099,0,0,0.058618,-0.025696,0,-0.0036451,0,0,0,0.032058,-0.00040117,0.0094969,-1.2379,0.013718,0.028814,7.5783e-07,0.72,0.24,0
0.034227,0.0058034,0.032027,-0.00039803,0.0094886,-0.00068026,0,0,0.058599,-0.025705,0,-0.0035374,0,0,0,0.032041,-0.00041231,0.0094886,-1.2014,0.013706,0.028808,7.5693e-07,0.73,0.24,0
0.034813,0.0058351,0.032011,-0.00040886,0.0094808,-0.00065895,0,0,0.05858,-0.025713,0,-0.0034266,0,0,0,0.032025,-0.00042226,0.0094808,-1.164,0.013694,0.028802,7.5603e-07,0.74,0.24,0
0.035399,0.005865,0.031997,-0.00041859,0.0094735,-0.00063713,0,0,0.058561,-0.025719,0,-0.0033131,0,0,0,0.032009,-0.00043112,0.0094735,-1.1257,0.013684,0.028795,7.5516e-07,0.75,0.24,0
0.035984,0.0058931,0.031983,-0.00042729,0.0094667,-0.00061487,0,0,0.058542,-0.025724,0,-0.0031973,0,0,0,0.031995,-0.00043897,0.0094667,-1.0865,0.013674,0.028789,7.5431e-07,0.76,0.24,0
0.036569,0.0059196,0.03197,-0.00043507,0.0094604,-0.00059222,0,0,0.058524,-0.025728,0,-0.0030795,0,0,0,0.031981,-0.0004459,0.0094604,-1.0467,0.013665,0.028782,7.5349e-07,0.77,0.24,0
0.037155,0.0059445,0.031957,-0.00044202,0.0094546,-0.00056921,0,0,0.058507,-0.025731,0,-0.0029599,0,0,0,0.031967,-0.00045203,0.0094546,-1.0063,0.013657,0.028775,7.527e-07,0.78,0.24,0
0.03774,0.0059679,0.031945,-0.00044822,0.0094492,-0.00054589,0,0,0.05849,-0.025733,0,-0.0028386,0,0,0,0.031955,-0.00045742,0.0094492,-0.96522,0.013649,0.028768,7.5195e-07,0.79,0.24,0
0.038324,0.0059897,0.031934,-0.00045375,0.0094442,-0.00052226,0,0,0.058475,-0.025735,0,-0.0027157,0,0,0,0.031943,-0.00046218,0.0094442,-0.92362,0.013642,0.028761,7.5123e-07,0.8,0.24,0
0.038909,0.0060102,0.031924,-0.00045869,0.0094396,-0.00049834,0,0,0.058459,-0.025736,0,-0.0025914,0,0,0,0.031932,-0.00046637,0.0094396,-0.88149,0.013635,0.028755,7.5054e-07,0.81,0.24,0
0.039494,0.0060293,0.031914,-0.00046311,0.0094354,-0.00047414,0,0,0.058445,-0.025736,0,-0.0024655,0,0,0,0.031921,-0.00047007,0.0094354,-0.83885,0.013629,0.028748,7.499e-07,0.82,0.24,0
0.040078,0.0060471,0.031905,-0.00046708,0.0094315,-0.00044967,0,0,0.058432,-0.025736,0,-0.0023383,0,0,0,0.031912,-0.00047333,0.0094315,-0.7957,0.013623,0.028742,7.493e-07,0.83,0.24,0
0.040662,0.0060636,0.031897,-0.00047063,0.0094279,-0.00042493,0,0,0.05842,-0.025736,0,-0.0022096,0,0,0,0.031903,-0.00047622,0.0094279,-0.75206,0.013618,0.028737,7.4874e-07,0.84,0.24,0
0.041246,0.0060789,0.031889,-0.00047383,0.0094247,-0.00039993,0,0,0.058408,-0.025736,0,-0.0020796,0,0,0,0.031894,-0.00047878,0.0094247,-0.70792,0.013613,0.028731,7.4822e-07,0.85,0.24,0
0.04183,0.0060931,0.031882,-0.0004767,0.0094217,-0.00037467,0,0,0.058398,-0.025736,0,-0.0019483,0,0,0,0.031887,-0.00048105,0.0094217,-0.66331,0.013609,0.028726,7.4775e-07,0.86,0.24,0
0.042414,0.006106,0.031876,-0.00047928,0.009419,-0.00034916,0,0,0.058388,-0.025736,0,-0.0018156,0,0,0,0.03188,-0.00048306,0.009419,-0.61823,0.013605,0.028722,7.4731e-07,0.87,0.24,0
0.042998,0.0061179,0.03187,-0.00048161,0.0094166,-0.0003234,0,0,0.05838,-0.025735,0,-0.0016817,0,0,0,0.031874,-0.00048486,0.0094166,-0.57269,0.013602,0.028718,7.4691e-07,0.88,0.24,0
0.043582,0.0061287,0.031865,-0.0004837,0.0094144,-0.0002974,0,0,0.058372,-0.025735,0,-0.0015465,0,0,0,0.031868,-0.00048645,0.0094144,-0.52671,0.013599,0.028714,7.4656e-07,0.89,0.24,0
0.044166,0.0061384,0.031861,-0.00048557,0.0094125,-0.00027117,0,0,0.058365,-0.025735,0,-0.0014101,0,0,0,0.031863,-0.00048786,0.0094125,-0.48031,0.013596,0.028711,7.4624e-07,0.9,0.24,0
0.044749,0.0061472,0.031856,-0.00048724,0.0094108,-0.00024473,0,0,0.058359,-0.025735,0,-0.0012726,0,0,0,0.031858,-0.0004891,0.0094108,-0.43352,0.013593,0.028708,7.4595e-07,0.91,0.24,0
0.045333,0.0061549,0.031853,-0.00048871,0.0094093,-0.00021809,0,0,0.058353,-0.025735,0,-0.001134,0,0,0,0.031854,-0.00049019,0.0094093,-0.38635,0.013591,0.028705,7.457e-07,0.92,0.24,0
0.045916,0.0061617,0.03185,-0.00049,0.0094079,-0.00019126,0,0,0.058349,-0.025735,0,-0.00099453,0,0,0,0.031851,-0.00049114,0.0094079,-0.33884,0.013589,0.028703,7.4548e-07,0.93,0.24,0
0.0465,0.0061675,0.031847,-0.0004911,0.0094068,-0.00016426,0,0,0.058345,-0.025735,0,-0.00085415,0,0,0,0.031848,-0.00049195,0.0094068,-0.29103,0.013588,0.028701,7.453e-07,0.94,0.24,0
0.047083,0.0061724,0.031845,-0.00049203,0.0094059,-0.00013711,0,0,0.058342,-0.025735,0,-0.000713,0,0,0,0.031846,-0.00049263,0.0094059,-0.24295,0.013586,0.028699,7.4514e-07,0.95,0.24,0
0.047667,0.0061764,0.031843,-0.00049279,0.0094051,-0.00010985,0,0,0.058339,-0.025735,0,-0.0005712,0,0,0,0.031844,-0.00049318,0.0094051,-0.19464,0.013585,0.028698,7.4502e-07,0.96,0.24,0
0.04825,0.0061795,0.031842,-0.00049338,0.0094045,-8.2475e-05,0,0,0.058337,-0.025735,0,-0.00042887,0,0,0,0.031842,-0.00049361,0.0094045,-0.14614,0.013584,0.028697,7.4492e-07,0.97,0.24,0
0.048833,0.0061817,0.031841,-0.0004938,0.0094041,-5.5027e-05,0,0,0.058336,-0.025735,0,-0.00028614,0,0,0,0.031841,-0.00049391,0.0094041,-0.097508,0.013584,0.028696,7.4485e-07,0.98,0.24,0
0.049417,0.006183,0.03184,-0.00049406,0.0094039,-2.5419e-05,0,0,0.058335,-0.025735,0,-0.00013218,0,0,0,0.03184,-0.00049409,0.0094039,-0.045043,0.013583,0.028696,7.4481e-07,0.99,0.24,0
0.049708,0.0061835,0.03184,-0.00049414,0.0094038,-9.551e-06,0,0,0.058334,-0.025735,0,-4.9666e-05,0,0,0,0.03184,-0.00049415,0.0094038,-0.016925,0.013583,0.028695,7.448e-07,1,0.24,0
0.00025937,0.00012564,0.034876,0.014566,0.014833,0.0048195,0,0,0.052113,-0.00069295,0,0.025061,0,0,0,0.035964,0.013478,0.014833,12.7,0.021425,0.021842,5.2814e-07,0,0.25,0
0.00052113,0.00024583,0.034922,0.014233,0.014746,0.0047577,0,0,0.052457,-0.0013359,0,0.02474,0,0,0,0.035968,0.013187,0.014746,12.361,0.0213,0.022044,5.4085e-07,0.01,0.25,0
0.0010491,0.00047541,0.035097,0.013652,0.014625,0.0045858,0,0,0.053228,-0.0025282,0,0.023846,0,0,0,0.036041,0.012708,0.014625,11.591,0.021125,0.022437,5.6599e-07,0.02,0.25,0
0.0015857,0.00068327,0.035347,0.013203,0.014565,0.0043587,0,0,0.054033,-0.0035414,0,0.022665,0,0,0,0.036178,0.012371,0.014565,10.755,0.021038,0.02279,5.8911e-07,0.03,0.25,0
0.0021298,0.00086854,0.035583,0.01284,0.014527,0.0040967,0,0,0.054746,-0.0043867,0,0.021303,0,0,0,0.036303,0.01212,0.014527,9.914,0.020983,0.023074,6.0797e-07,0.04,0.25,0
0.0026806,0.0010287,0.035836,0.012565,0.01452,0.0037466,0,0,0.055421,-0.0050842,0,0.019482,0,0,0,0.03643,0.01197,0.01452,8.9286,0.020973,0.02329,6.2279e-07,0.05,0.25,0
0.0032382,0.0011595,0.036191,0.01231,0.01455,0.0033003,0,0,0.056266,-0.0058244,0,0.017162,0,0,0,0.036648,0.011854,0.01455,7.735,0.021017,0.023563,6.4279e-07,0.06,0.25,0
0.0038059,0.0012629,0.036806,0.011843,0.014595,0.0029676,0,0,0.053789,-0.0063738,0,0.014271,0,0,0,0.037168,0.011481,0.014595,6.6788,0.021081,0.024288,7.091e-07,0.07,0.25,0
0.0043178,0.0013492,0.037012,0.011106,0.014436,0.0026295,0,0,0.044255,-0.0060495,0,0.01024,0,0,0,0.037301,0.010817,0.014436,5.6737,0.020851,0.024885,7.6823e-07,0.08,0.25,0
0.0046963,0.0014334,0.036689,0.010416,0.014131,0.0021313,0,0,0.034146,-0.0054212,0,0.0064448,0,0,0,0.036878,0.010227,0.014131,4.5628,0.020412,0.024935,7.5843e-07,0.09,0.25,0
0.0049998,0.0015262,0.036855,0.0098137,0.014001,0.0018296,0,0,0.030348,-0.0055464,0,0.0048362,0,0,0,0.036982,0.0096868,0.014001,3.8586,0.020223,0.025416,7.6987e-07,0.1,0.25,0
0.0053008,0.0016213,0.037096,0.0091503,0.013874,0.0016401,0,0,0.030188,-0.0061405,0,0.0042643,0,0,0,0.037195,0.0090512,0.013874,3.355,0.02004,0.02607,8.0593e-07,0.11,0.25,0
0.0056035,0.0017091,0.036966,0.0085409,0.013652,0.0013844,0,0,0.030308,-0.0066443,0,0.0035995,0,0,0,0.037034,0.0084722,0.013652,2.7853,0.01972,0.026357,8.1922e-07,0.12,0.25,0
0.005907,0.0017895,0.036837,0.0080066,0.013453,0.0011749,0,0,0.030399,-0.0070805,0,0.0030548,0,0,0,0.036886,0.0079579,0.013453,2.3324,0.019432,0.02661,8.3016e-07,0.13,0.25,0
0.0062115,0.0018638,0.036748,0.0074798,0.013268,0.00099498,0,0,0.030523,-0.007525,0,0.002587,0,0,0,0.036782,0.0074453,0.013268,1.9475,0.019165,0.026903,8.4412e-07,0.14,0.25,0
0.0065175,0.0019327,0.036687,0.0069705,0.013097,0.00082209,0,0,0.030667,-0.0079648,0,0.0021374,0,0,0,0.03671,0.0069472,0.013097,1.586,0.018918,0.027215,8.5956e-07,0.15,0.25,0
0.0068249,0.0019965,0.036633,0.0064774,0.012933,0.00065029,0,0,0.03081,-0.0083923,0,0.0016908,0,0,0,0.036647,0.0064628,0.012933,1.2372,0.018681,0.027526,8.7479e-07,0.16,0.25,0
0.0071337,0.0020553,0.036576,0.0060025,0.012774,0.00048004,0,0,0.030944,-0.0088026,0,0.0012481,0,0,0,0.036584,0.0059944,0.012774,0.90153,0.018451,0.027827,8.8906e-07,0.17,0.25,0
0.0074437,0.0021094,0.036514,0.0055484,0.012619,0.00031352,0,0,0.031064,-0.0091915,0,0.00081514,0,0,0,0.036518,0.0055447,0.012619,0.582,0.018227,0.028112,9.0195e-07,0.18,0.25,0
0.0077549,0.0021591,0.036445,0.0051164,0.012468,0.000154,0,0,0.031169,-0.0095575,0,0.00040041,0,0,0,0.036446,0.0051151,0.012468,0.28337,0.01801,0.028378,9.1331e-07,0.19,0.25,0
0.0080671,0.0022044,0.036368,0.0047047,0.012322,4.6648e-06,0,0,0.03126,-0.009902,0,1.2128e-05,0,0,0,0.036368,0.0047043,0.012322,0.0099012,0.017798,0.028626,9.2317e-07,0.2,0.25,0
0.0083801,0.0022459,0.036284,0.0043101,0.012178,-0.00013231,0,0,0.031337,-0.010229,0,-0.00034401,0,0,0,0.036285,0.0043091,0.012178,-0.23586,0.017591,0.028858,9.3171e-07,0.21,0.25,0
0.0086939,0.0022838,0.036196,0.0039283,0.012037,-0.00025593,0,0,0.031406,-0.010542,0,-0.00066543,0,0,0,0.036198,0.0039259,0.012037,-0.45338,0.017387,0.029078,9.3921e-07,0.22,0.25,0
0.0090083,0.0023184,0.036105,0.0035548,0.011898,-0.00036637,0,0,0.031469,-0.010846,0,-0.00095255,0,0,0,0.036109,0.0035504,0.011898,-0.64391,0.017186,0.029291,9.4596e-07,0.23,0.25,0
0.0093232,0.0023501,0.036012,0.0031854,0.011759,-0.00046486,0,0,0.031529,-0.011146,0,-0.0012086,0,0,0,0.036019,0.0031785,0.011759,-0.81038,0.016986,0.029502,9.5226e-07,0.24,0.25,0
0.0096388,0.0023791,0.035921,0.0028164,0.011621,-0.00055355,0,0,0.031589,-0.011446,0,-0.0014392,0,0,0,0.03593,0.0028069,0.011621,-0.95704,0.016786,0.029714,9.5831e-07,0.25,0.25,0
0.009955,0.0024058,0.03583,0.0024456,0.011483,-0.00063507,0,0,0.031652,-0.011748,0,-0.0016512,0,0,0,0.035842,0.0024333,0.011483,-1.0888,0.016586,0.029929,9.6428e-07,0.26,0.25,0
0.010272,0.0024303,0.035741,0.002072,0.011344,-0.00071191,0,0,0.031716,-0.012054,0,-0.001851,0,0,0,0.035756,0.0020568,0.011344,-1.2101,0.016386,0.030149,9.7021e-07,0.27,0.25,0
0.010589,0.0024529,0.035654,0.0016958,0.011205,-0.00078599,0,0,0.031784,-0.012362,0,-0.0020436,0,0,0,0.035672,0.0016774,0.011205,-1.3246,0.016185,0.030373,9.7608e-07,0.28,0.25,0
0.010908,0.0024736,0.035568,0.0013174,0.011065,-0.00085826,0,0,0.031853,-0.012673,0,-0.0022315,0,0,0,0.035589,0.0012957,0.011065,-1.4339,0.015983,0.030602,9.8186e-07,0.29,0.25,0
0.011226,0.0024926,0.035483,0.00093695,0.010926,-0.00092842,0,0,0.031924,-0.012986,0,-0.0024139,0,0,0,0.035508,0.00091186,0.010926,-1.5377,0.015782,0.030834,9.8753e-07,0.3,0.25,0
0.011546,0.0025101,0.035401,0.00055395,0.010786,-0.00099473,0,0,0.031998,-0.013302,0,-0.0025863,0,0,0,0.035429,0.00052544,0.010786,-1.6332,0.01558,0.031071,9.9317e-07,0.31,0.25,0
0.011866,0.0025264,0.035324,0.00016552,0.010647,-0.0010541,0,0,0.03208,-0.013626,0,-0.0027406,0,0,0,0.035355,0.00013384,0.010647,-1.7152,0.015379,0.031318,9.9908e-07,0.32,0.25,0
0.012188,0.0025417,0.035257,-0.00023469,0.010507,-0.0011028,0,0,0.032175,-0.013964,0,-0.0028673,0,0,0,0.035291,-0.000269,0.010507,-1.7776,0.015176,0.031583,1.0058e-06,0.33,0.25,0
0.01251,0.0025564,0.03521,-0.00065545,0.010366,-0.0011379,0,0,0.032297,-0.014328,0,-0.0029586,0,0,0,0.035246,-0.00069155,0.010366,-1.8152,0.014974,0.031881,1.0144e-06,0.34,0.25,0
0.012834,0.002571,0.035199,-0.0011045,0.010228,-0.0011581,0,0,0.032461,-0.014732,0,-0.0030111,0,0,0,0.035235,-0.0011414,0.010228,-1.8254,0.014774,0.032233,1.0263e-06,0.35,0.25,0
0.013159,0.0025856,0.035251,-0.0015871,0.010099,-0.0011708,0,0,0.032698,-0.015192,0,-0.0030441,0,0,0,0.035288,-0.0016244,0.010099,-1.8187,0.014588,0.032669,1.0444e-06,0.36,0.25,0
0.013487,0.0026004,0.035365,-0.0021144,0.0099753,-0.0012008,0,0,0.033007,-0.015717,0,-0.0031221,0,0,0,0.035404,-0.0021533,0.0099753,-1.8337,0.014409,0.033199,1.069e-06,0.37,0.25,0
0.013819,0.0026146,0.035496,-0.002539,0.0098871,-0.0012413,0,0,0.033292,-0.016154,0,-0.0032274,0,0,0,0.035538,-0.0025806,0.0098871,-1.8689,0.014281,0.033663,1.0926e-06,0.38,0.25,0
0.014153,0.0026307,0.03537,-0.0026364,0.0098201,-0.0010444,0,0,0.033941,-0.016513,0,-0.0026626,0,0,0,0.035405,-0.0026715,0.0098201,-1.5488,0.014185,0.033619,1.0937e-06,0.39,0.25,0
0.014495,0.0026675,0.035353,-0.0024991,0.009856,-0.00064232,0,0,0.038527,-0.0181,0,-0.0014039,0,0,0,0.03538,-0.0025261,0.009856,-0.87501,0.014237,0.033498,1.1063e-06,0.4,0.25,0
0.014923,0.002762,0.035726,-0.0016627,0.010219,-0.00030804,0,0,0.049783,-0.021913,0,-0.00031319,0,0,0,0.035752,-0.0016879,0.010219,-0.328,0.014761,0.033173,1.1141e-06,0.41,0.25,0
0.015497,0.0029193,0.035668,-0.00016153,0.010652,-5.8406e-05,0,0,0.060484,-0.025442,0,0.00018177,0,0,0,0.035682,-0.00017488,0.010652,-0.022387,0.015386,0.031877,1.0458e-06,0.42,0.25,0
0.016136,0.0030969,0.035223,0.00054607,0.010731,-0.00010501,0,0,0.06368,-0.02648,0,-0.00054603,0,0,0,0.035227,0.00054199,0.010731,-0.17328,0.0155,0.030879,9.7664e-07,0.43,0.25,0
0.01677,0.0032615,0.034855,0.00035267,0.010562,-0.00038243,0,0,0.063161,-0.026545,0,-0.0019887,0,0,0,0.034862,0.00034588,0.010562,-0.63408,0.015257,0.03071,9.5171e-07,0.44,0.25,0
0.0174,0.0034099,0.034542,9.838e-05,0.010392,-0.00056381,0,0,0.06279,-0.026764,0,-0.0029318,0,0,0,0.034553,8.7973e-05,0.010392,-0.93872,0.015011,0.030641,9.3398e-07,0.45,0.25,0
0.018026,0.003547,0.034291,-6.7974e-05,0.010267,-0.00063175,0,0,0.062463,-0.026871,0,-0.0032851,0,0,0,0.034304,-8.0528e-05,0.010267,-1.0548,0.01483,0.030554,9.1881e-07,0.46,0.25,0
0.018649,0.0036767,0.034051,-0.00015694,0.010168,-0.00064431,0,0,0.062096,-0.026846,0,-0.0033504,0,0,0,0.034064,-0.00016995,0.010168,-1.0804,0.014688,0.030413,9.0227e-07,0.47,0.25,0
0.019268,0.0038008,0.033822,-0.00019111,0.010089,-0.0006402,0,0,0.061706,-0.026729,0,-0.0033291,0,0,0,0.033835,-0.00020393,0.010089,-1.0795,0.014574,0.030236,8.8512e-07,0.48,0.25,0
0.019883,0.0039201,0.03361,-0.00019128,0.010026,-0.00063685,0,0,0.061319,-0.026564,0,-0.0033116,0,0,0,0.033622,-0.00020391,0.010026,-1.0803,0.014481,0.030047,8.6855e-07,0.49,0.25,0
0.020494,0.0040347,0.033419,-0.00017361,0.0099735,-0.00064041,0,0,0.060957,-0.026383,0,-0.0033301,0,0,0,0.033431,-0.00018632,0.0099735,-1.0928,0.014406,0.029863,8.5337e-07,0.5,0.25,0
0.021102,0.0041446,0.033251,-0.00014935,0.0099304,-0.00065166,0,0,0.060633,-0.026207,0,-0.0033887,0,0,0,0.033264,-0.00016245,0.0099304,-1.1182,0.014344,0.029695,8.3996e-07,0.51,0.25,0
0.021707,0.0042498,0.033105,-0.00012569,0.0098939,-0.00066911,0,0,0.06035,-0.026051,0,-0.0034794,0,0,0,0.033119,-0.00013945,0.0098939,-1.1538,0.014291,0.029548,8.2845e-07,0.52,0.25,0
0.022309,0.0043502,0.032981,-0.0001068,0.0098623,-0.0006905,0,0,0.060109,-0.02592,0,-0.0035906,0,0,0,0.032996,-0.00012142,0.0098623,-1.1956,0.014246,0.029424,8.1876e-07,0.53,0.25,0
0.022909,0.0044458,0.032876,-9.4698e-05,0.0098343,-0.0007136,0,0,0.059908,-0.025815,0,-0.0037107,0,0,0,0.032891,-0.0001103,0.0098343,-1.2398,0.014205,0.029323,8.1073e-07,0.54,0.25,0
0.023507,0.0045366,0.032787,-9.0027e-05,0.009809,-0.0007365,0,0,0.059742,-0.025738,0,-0.0038298,0,0,0,0.032803,-0.00010664,0.009809,-1.2831,0.014169,0.029242,8.0415e-07,0.55,0.25,0
0.024104,0.0046227,0.032712,-9.2512e-05,0.0097857,-0.00075771,0,0,0.059607,-0.025683,0,-0.0039401,0,0,0,0.032729,-0.00011009,0.0097857,-1.3228,0.014135,0.029178,7.988e-07,0.56,0.25,0
0.024699,0.0047043,0.032648,-0.00010136,0.009764,-0.00077618,0,0,0.059498,-0.02565,0,-0.0040361,0,0,0,0.032666,-0.00011981,0.009764,-1.3572,0.014104,0.02913,7.9446e-07,0.57,0.25,0
0.025294,0.0047815,0.032594,-0.00011553,0.0097434,-0.00079123,0,0,0.059411,-0.025633,0,-0.0041144,0,0,0,0.032613,-0.0001347,0.0097434,-1.3852,0.014074,0.029095,7.9095e-07,0.58,0.25,0
0.025888,0.0048546,0.032547,-0.00013385,0.0097239,-0.0008025,0,0,0.05934,-0.02563,0,-0.004173,0,0,0,0.032567,-0.00015358,0.0097239,-1.406,0.014046,0.029069,7.8807e-07,0.59,0.25,0
0.026481,0.0049237,0.032506,-0.00015522,0.0097052,-0.00080988,0,0,0.059282,-0.025637,0,-0.0042114,0,0,0,0.032526,-0.00017532,0.0097052,-1.4198,0.014019,0.02905,7.857e-07,0.6,0.25,0
0.027073,0.0049891,0.03247,-0.0001786,0.0096874,-0.00081345,0,0,0.059234,-0.025652,0,-0.00423,0,0,0,0.03249,-0.00019888,0.0096874,-1.4266,0.013993,0.029037,7.8369e-07,0.61,0.25,0
0.027665,0.0050509,0.032437,-0.0002031,0.0096702,-0.00081341,0,0,0.059194,-0.025671,0,-0.0042298,0,0,0,0.032458,-0.00022338,0.0096702,-1.4268,0.013968,0.029027,7.8197e-07,0.62,0.25,0
0.028257,0.0051093,0.032407,-0.00022796,0.0096539,-0.00081005,0,0,0.059159,-0.025693,0,-0.0042123,0,0,0,0.032428,-0.00024807,0.0096539,-1.4211,0.013944,0.029021,7.8043e-07,0.63,0.25,0
0.028849,0.0051646,0.03238,-0.00025258,0.0096382,-0.00080369,0,0,0.059128,-0.025716,0,-0.0041792,0,0,0,0.0324,-0.00027238,0.0096382,-1.4101,0.013922,0.029015,7.7903e-07,0.64,0.25,0
0.02944,0.0052169,0.032354,-0.00027648,0.0096232,-0.00079468,0,0,0.0591,-0.025739,0,-0.0041323,0,0,0,0.032373,-0.00029584,0.0096232,-1.3944,0.0139,0.029011,7.7772e-07,0.65,0.25,0
0.030031,0.0052664,0.032329,-0.00029933,0.009609,-0.00078336,0,0,0.059073,-0.025762,0,-0.0040735,0,0,0,0.032348,-0.00031814,0.009609,-1.3747,0.01388,0.029006,7.7647e-07,0.66,0.25,0
0.030621,0.0053133,0.032306,-0.00032087,0.0095954,-0.00077006,0,0,0.059047,-0.025782,0,-0.0040043,0,0,0,0.032324,-0.00033905,0.0095954,-1.3515,0.01386,0.029001,7.7525e-07,0.67,0.25,0
0.031212,0.0053576,0.032283,-0.00034096,0.0095826,-0.00075509,0,0,0.059021,-0.025801,0,-0.0039264,0,0,0,0.0323,-0.00035844,0.0095826,-1.3253,0.013842,0.028996,7.7405e-07,0.68,0.25,0
0.031802,0.0053995,0.032261,-0.00035952,0.0095704,-0.00073869,0,0,0.058995,-0.025818,0,-0.0038412,0,0,0,0.032278,-0.00037626,0.0095704,-1.2967,0.013824,0.02899,7.7287e-07,0.69,0.25,0
0.032391,0.0054391,0.03224,-0.00037654,0.009559,-0.00072112,0,0,0.05897,-0.025832,0,-0.0037498,0,0,0,0.032256,-0.00039249,0.009559,-1.2661,0.013807,0.028983,7.717e-07,0.7,0.25,0
0.032981,0.0054766,0.032219,-0.00039203,0.0095482,-0.00070257,0,0,0.058945,-0.025845,0,-0.0036534,0,0,0,0.032234,-0.00040717,0.0095482,-1.2337,0.013792,0.028976,7.7054e-07,0.71,0.25,0
0.03357,0.0055121,0.032199,-0.00040606,0.009538,-0.0006832,0,0,0.05892,-0.025855,0,-0.0035526,0,0,0,0.032214,-0.00042038,0.009538,-1.1999,0.013777,0.028969,7.6939e-07,0.72,0.25,0
0.034159,0.0055456,0.03218,-0.0004187,0.0095285,-0.00066315,0,0,0.058895,-0.025863,0,-0.0034484,0,0,0,0.032194,-0.0004322,0.0095285,-1.165,0.013763,0.02896,7.6826e-07,0.73,0.25,0
0.034748,0.0055772,0.032162,-0.00043006,0.0095196,-0.00064253,0,0,0.05887,-0.025869,0,-0.0033412,0,0,0,0.032175,-0.00044273,0.0095196,-1.1291,0.013751,0.028952,7.6715e-07,0.74,0.25,0
0.035337,0.005607,0.032145,-0.00044024,0.0095113,-0.00062143,0,0,0.058846,-0.025874,0,-0.0032315,0,0,0,0.032156,-0.0004521,0.0095113,-1.0923,0.013738,0.028943,7.6607e-07,0.75,0.25,0
0.035925,0.0056351,0.032128,-0.00044934,0.0095035,-0.00059991,0,0,0.058823,-0.025877,0,-0.0031195,0,0,0,0.032139,-0.0004604,0.0095035,-1.0547,0.013727,0.028934,7.6503e-07,0.76,0.25,0
0.036513,0.0056616,0.032112,-0.00045748,0.0094963,-0.00057802,0,0,0.0588,-0.02588,0,-0.0030057,0,0,0,0.032122,-0.00046774,0.0094963,-1.0165,0.013717,0.028925,7.6402e-07,0.77,0.25,0
0.037101,0.0056864,0.032097,-0.00046475,0.0094896,-0.00055579,0,0,0.058778,-0.025881,0,-0.0028901,0,0,0,0.032106,-0.00047425,0.0094896,-0.97767,0.013707,0.028916,7.6305e-07,0.78,0.25,0
0.037689,0.0057098,0.032082,-0.00047126,0.0094833,-0.00053325,0,0,0.058758,-0.025882,0,-0.0027729,0,0,0,0.032091,-0.00048,0.0094833,-0.93827,0.013698,0.028907,7.6212e-07,0.79,0.25,0
0.038276,0.0057317,0.032069,-0.00047708,0.0094776,-0.00051041,0,0,0.058738,-0.025882,0,-0.0026541,0,0,0,0.032077,-0.0004851,0.0094776,-0.89831,0.01369,0.028899,7.6124e-07,0.8,0.25,0
0.038864,0.0057521,0.032056,-0.00048231,0.0094722,-0.00048727,0,0,0.058719,-0.025882,0,-0.0025338,0,0,0,0.032064,-0.00048962,0.0094722,-0.85781,0.013682,0.028891,7.6041e-07,0.81,0.25,0
0.039451,0.0057712,0.032045,-0.00048702,0.0094673,-0.00046385,0,0,0.058701,-0.025881,0,-0.002412,0,0,0,0.032051,-0.00049364,0.0094673,-0.81678,0.013675,0.028883,7.5964e-07,0.82,0.25,0
0.040038,0.005789,0.032034,-0.00049126,0.0094628,-0.00044015,0,0,0.058685,-0.025881,0,-0.0022888,0,0,0,0.03204,-0.00049722,0.0094628,-0.77521,0.013668,0.028875,7.5891e-07,0.83,0.25,0
0.040624,0.0058055,0.032024,-0.00049509,0.0094586,-0.00041616,0,0,0.05867,-0.02588,0,-0.002164,0,0,0,0.032029,-0.00050042,0.0094586,-0.73312,0.013662,0.028869,7.5823e-07,0.84,0.25,0
0.041211,0.0058209,0.032015,-0.00049855,0.0094548,-0.00039188,0,0,0.058656,-0.025879,0,-0.0020378,0,0,0,0.032019,-0.00050329,0.0094548,-0.69049,0.013657,0.028862,7.5761e-07,0.85,0.25,0
0.041798,0.005835,0.032006,-0.0005017,0.0094514,-0.00036733,0,0,0.058643,-0.025878,0,-0.0019101,0,0,0,0.03201,-0.00050586,0.0094514,-0.64735,0.013652,0.028856,7.5703e-07,0.86,0.25,0
0.042384,0.005848,0.031999,-0.00050455,0.0094482,-0.00034249,0,0,0.058631,-0.025877,0,-0.001781,0,0,0,0.032002,-0.00050817,0.0094482,-0.60368,0.013647,0.028851,7.5651e-07,0.87,0.25,0
0.04297,0.0058598,0.031992,-0.00050714,0.0094453,-0.00031738,0,0,0.05862,-0.025876,0,-0.0016504,0,0,0,0.031995,-0.00051025,0.0094453,-0.55951,0.013643,0.028846,7.5603e-07,0.88,0.25,0
0.043556,0.0058706,0.031985,-0.00050947,0.0094428,-0.00029201,0,0,0.058611,-0.025876,0,-0.0015185,0,0,0,0.031988,-0.00051211,0.0094428,-0.51485,0.01364,0.028841,7.556e-07,0.89,0.25,0
0.044142,0.0058804,0.03198,-0.00051158,0.0094404,-0.00026638,0,0,0.058602,-0.025875,0,-0.0013852,0,0,0,0.031982,-0.00051378,0.0094404,-0.46972,0.013636,0.028837,7.5521e-07,0.9,0.25,0
0.044728,0.0058891,0.031975,-0.00051347,0.0094384,-0.0002405,0,0,0.058595,-0.025875,0,-0.0012506,0,0,0,0.031977,-0.00051526,0.0094384,-0.42414,0.013633,0.028834,7.5487e-07,0.91,0.25,0
0.045314,0.0058968,0.03197,-0.00051515,0.0094366,-0.0002144,0,0,0.058588,-0.025874,0,-0.0011149,0,0,0,0.031972,-0.00051658,0.0094366,-0.37814,0.013631,0.028831,7.5457e-07,0.92,0.25,0
0.0459,0.0059036,0.031967,-0.00051663,0.009435,-0.00018809,0,0,0.058582,-0.025874,0,-0.00097807,0,0,0,0.031968,-0.00051773,0.009435,-0.33177,0.013628,0.028828,7.5431e-07,0.93,0.25,0
0.046486,0.0059095,0.031963,-0.00051791,0.0094336,-0.00016159,0,0,0.058577,-0.025874,0,-0.00084027,0,0,0,0.031964,-0.00051872,0.0094336,-0.28504,0.013626,0.028825,7.5408e-07,0.94,0.25,0
0.047072,0.0059144,0.031961,-0.00051898,0.0094325,-0.00013492,0,0,0.058573,-0.025874,0,-0.00070159,0,0,0,0.031961,-0.00051956,0.0094325,-0.23801,0.013625,0.028824,7.539e-07,0.95,0.25,0
0.047657,0.0059184,0.031959,-0.00051987,0.0094316,-0.00010811,0,0,0.05857,-0.025874,0,-0.00056218,0,0,0,0.031959,-0.00052024,0.0094316,-0.19073,0.013623,0.028822,7.5375e-07,0.96,0.25,0
0.048243,0.0059214,0.031957,-0.00052055,0.0094309,-8.1187e-05,0,0,0.058568,-0.025874,0,-0.00042217,0,0,0,0.031957,-0.00052077,0.0094309,-0.14323,0.013622,0.028821,7.5363e-07,0.97,0.25,0
0.048829,0.0059236,0.031956,-0.00052104,0.0094304,-5.4174e-05,0,0,0.058566,-0.025874,0,-0.00028171,0,0,0,0.031956,-0.00052114,0.0094304,-0.095579,0.013622,0.02882,7.5355e-07,0.98,0.25,0
0.049414,0.005925,0.031955,-0.00052134,0.0094301,-2.4994e-05,0,0,0.058565,-0.025874,0,-0.00012997,0,0,0,0.031955,-0.00052137,0.0094301,-0.044097,0.013621,0.028819,7.535e-07,0.99,0.25,0
0.049707,0.0059254,0.031955,-0.00052143,0.00943,-9.3391e-06,0,0,0.058564,-0.025874,0,-4.8563e-05,0,0,0,0.031955,-0.00052145,0.00943,-0.016477,0.013621,0.028819,7.5348e-07,1,0.25,0
0.00026389,0.00011849,0.035481,0.014805,0.015086,0.0045435,0,0,0.053027,-0.00073004,0,0.023626,0,0,0,0.036438,0.013848,0.015086,11.868,0.021791,0.021999,5.4082e-07,0,0.26,0
0.00053027,0.00023209,0.03553,0.014458,0.014996,0.0044849,0,0,0.053387,-0.0013996,0,0.023321,0,0,0,0.036449,0.013539,0.014996,11.54,0.021662,0.022218,5.5509e-07,0.01,0.26,0
0.0010677,0.00044953,0.035715,0.013864,0.014874,0.0043221,0,0,0.054188,-0.0026252,0,0.022475,0,0,0,0.036544,0.013036,0.014874,10.804,0.021485,0.022646,5.8335e-07,0.02,0.26,0
0.001614,0.00064732,0.035977,0.013424,0.01482,0.0041083,0,0,0.055007,-0.0036295,0,0.021363,0,0,0,0.036706,0.012695,0.01482,10.019,0.021407,0.023022,6.0887e-07,0.03,0.26,0
0.0021679,0.00082462,0.0362,0.013094,0.014788,0.0038691,0,0,0.055671,-0.0044047,0,0.020119,0,0,0,0.036835,0.01246,0.014788,9.265,0.021361,0.023298,6.2783e-07,0.04,0.26,0
0.0027275,0.00097925,0.03633,0.01288,0.014763,0.0035541,0,0,0.056075,-0.004896,0,0.018482,0,0,0,0.036861,0.012349,0.014763,8.4334,0.021325,0.023399,6.3476e-07,0.05,0.26,0
0.0032894,0.0011054,0.036707,0.012851,0.014868,0.0032448,0,0,0.055548,-0.0050991,0,0.016473,0,0,0,0.037146,0.012413,0.014868,7.6098,0.021476,0.023602,6.634e-07,0.06,0.26,0
0.0038424,0.0012053,0.036791,0.012417,0.014762,0.0027708,0,0,0.051124,-0.0051541,0,0.012866,0,0,0,0.037127,0.01208,0.014762,6.3467,0.021323,0.023826,6.953e-07,0.07,0.26,0
0.0043177,0.0012948,0.036219,0.01139,0.014283,0.0021414,0,0,0.041191,-0.0049732,0,0.0079588,0,0,0,0.036431,0.011178,0.014283,4.7997,0.020631,0.023864,6.8289e-07,0.08,0.26,0
0.004666,0.0013839,0.036312,0.010672,0.014095,0.0019174,0,0,0.032177,-0.0047708,0,0.0053726,0,0,0,0.036463,0.010521,0.014095,4.2169,0.02036,0.024358,6.9631e-07,0.09,0.26,0
0.0049591,0.0014737,0.036842,0.010113,0.014087,0.0019082,0,0,0.029582,-0.0051653,0,0.0049613,0,0,0,0.03698,0.009976,0.014087,4.0729,0.020347,0.025203,7.4954e-07,0.1,0.26,0
0.0052576,0.0015612,0.037006,0.0093761,0.013915,0.0017222,0,0,0.030019,-0.0059001,0,0.0044777,0,0,0,0.037115,0.0092674,0.013915,3.5604,0.020099,0.02584,7.9038e-07,0.11,0.26,0
0.0055595,0.0016432,0.03703,0.008737,0.01373,0.0014814,0,0,0.03029,-0.0064911,0,0.0038515,0,0,0,0.037109,0.0086583,0.01373,2.9941,0.019832,0.026285,8.1672e-07,0.12,0.26,0
0.0058634,0.0017191,0.036981,0.008184,0.013549,0.0012588,0,0,0.030461,-0.006975,0,0.0032728,0,0,0,0.037037,0.0081281,0.013549,2.5017,0.019571,0.026616,8.3439e-07,0.13,0.26,0
0.0061687,0.001789,0.036903,0.007657,0.013368,0.0010627,0,0,0.030595,-0.0074242,0,0.0027629,0,0,0,0.036942,0.0076176,0.013368,2.0811,0.019309,0.026914,8.4914e-07,0.14,0.26,0
0.0064753,0.0018535,0.036826,0.0071449,0.013191,0.00088244,0,0,0.030725,-0.0078603,0,0.0022943,0,0,0,0.036853,0.007118,0.013191,1.704,0.019054,0.027212,8.6353e-07,0.15,0.26,0
0.0067832,0.0019131,0.036755,0.006649,0.013021,0.00071026,0,0,0.030854,-0.0082839,0,0.0018467,0,0,0,0.036772,0.0066316,0.013021,1.3531,0.018808,0.027509,8.7764e-07,0.16,0.26,0
0.0070924,0.0019679,0.036684,0.0061702,0.012856,0.00054383,0,0,0.030976,-0.0086921,0,0.001414,0,0,0,0.036695,0.0061599,0.012856,1.0228,0.01857,0.027799,8.9104e-07,0.17,0.26,0
0.0074028,0.0020181,0.036611,0.00571,0.012696,0.00038363,0,0,0.031089,-0.0090823,0,0.00099743,0,0,0,0.036616,0.0057047,0.012696,0.71308,0.018339,0.028077,9.034e-07,0.18,0.26,0
0.0077142,0.002064,0.036533,0.0052688,0.012541,0.00023129,0,0,0.03119,-0.0094533,0,0.00060134,0,0,0,0.036535,0.0052666,0.012541,0.4255,0.018114,0.028341,9.1451e-07,0.19,0.26,0
0.0080266,0.0021059,0.036449,0.0048457,0.012389,8.8641e-05,0,0,0.031279,-0.0098057,0,0.00023047,0,0,0,0.03645,0.004845,0.012389,0.16214,0.017895,0.02859,9.2433e-07,0.2,0.26,0
0.0083398,0.002144,0.036361,0.0044383,0.01224,-4.2911e-05,0,0,0.031357,-0.010142,0,-0.00011157,0,0,0,0.036361,0.0044379,0.01224,-0.075794,0.01768,0.028826,9.3296e-07,0.21,0.26,0
0.0086537,0.0021787,0.036267,0.0040435,0.012093,-0.00016274,0,0,0.031426,-0.010465,0,-0.00042313,0,0,0,0.036269,0.0040423,0.012093,-0.28831,0.017468,0.02905,9.4057e-07,0.22,0.26,0
0.0089683,0.0022102,0.036171,0.0036578,0.011949,-0.0002711,0,0,0.031489,-0.010778,0,-0.00070485,0,0,0,0.036174,0.0036552,0.011949,-0.4768,0.017259,0.029267,9.4738e-07,0.23,0.26,0
0.0092835,0.0022389,0.036073,0.0032777,0.011805,-0.00036903,0,0,0.031548,-0.011086,0,-0.00095948,0,0,0,0.036077,0.0032733,0.011805,-0.64384,0.017052,0.029479,9.5359e-07,0.24,0.26,0
0.0095993,0.0022649,0.035974,0.0029005,0.011662,-0.00045824,0,0,0.031605,-0.01139,0,-0.0011914,0,0,0,0.035981,0.0028939,0.011662,-0.79294,0.016846,0.02969,9.5938e-07,0.25,0.26,0
0.0099156,0.0022886,0.035875,0.002524,0.01152,-0.00054076,0,0,0.031662,-0.011694,0,-0.001406,0,0,0,0.035884,0.002515,0.01152,-0.92803,0.01664,0.029902,9.6487e-07,0.26,0.26,0
0.010232,0.0023101,0.035776,0.0021469,0.011377,-0.00061861,0,0,0.031719,-0.011999,0,-0.0016084,0,0,0,0.035788,0.0021353,0.011377,-1.0529,0.016433,0.030115,9.7011e-07,0.27,0.26,0
0.01055,0.0023295,0.035677,0.0017687,0.011234,-0.00069343,0,0,0.031777,-0.012305,0,-0.0018029,0,0,0,0.035692,0.0017543,0.011234,-1.1704,0.016227,0.03033,9.7513e-07,0.28,0.26,0
0.010868,0.0023472,0.035579,0.0013888,0.01109,-0.00076624,0,0,0.031835,-0.012612,0,-0.0019922,0,0,0,0.035596,0.0013714,0.01109,-1.2826,0.016019,0.030548,9.7993e-07,0.29,0.26,0
0.011187,0.0023631,0.035481,0.0010065,0.010946,-0.00083725,0,0,0.031895,-0.012922,0,-0.0021768,0,0,0,0.035501,0.00098596,0.010946,-1.3898,0.015811,0.030769,9.8457e-07,0.3,0.26,0
0.011506,0.0023774,0.035385,0.00061978,0.010801,-0.00090592,0,0,0.031958,-0.013236,0,-0.0023554,0,0,0,0.035409,0.00059602,0.010801,-1.4911,0.015602,0.030997,9.8922e-07,0.31,0.26,0
0.011826,0.0023905,0.035294,0.00022497,0.010656,-0.00097125,0,0,0.03203,-0.01356,0,-0.0025252,0,0,0,0.035321,0.00019794,0.010656,-1.5846,0.015392,0.031236,9.9422e-07,0.32,0.26,0
0.012147,0.0024023,0.035214,-0.00018395,0.010509,-0.0010323,0,0,0.032117,-0.013901,0,-0.002684,0,0,0,0.035244,-0.00021414,0.010509,-1.6685,0.01518,0.031497,1.0002e-06,0.33,0.26,0
0.012468,0.0024134,0.035153,-0.00061473,0.010361,-0.0010893,0,0,0.032229,-0.014269,0,-0.0028321,0,0,0,0.035186,-0.00064795,0.010361,-1.7422,0.014966,0.031793,1.008e-06,0.34,0.26,0
0.012791,0.0024238,0.035119,-0.0010755,0.010213,-0.0011449,0,0,0.032377,-0.014675,0,-0.0029767,0,0,0,0.035155,-0.0011117,0.010213,-1.8095,0.014752,0.032137,1.0185e-06,0.35,0.26,0
0.013116,0.0024338,0.035108,-0.0015738,0.01006,-0.001206,0,0,0.032562,-0.015124,0,-0.0031357,0,0,0,0.035148,-0.0016135,0.01006,-1.8806,0.014532,0.032535,1.0318e-06,0.36,0.26,0
0.013442,0.0024436,0.035085,-0.0020926,0.0098977,-0.0012742,0,0,0.032743,-0.015587,0,-0.003313,0,0,0,0.035129,-0.0021363,0.0098977,-1.9603,0.014297,0.03294,1.0441e-06,0.37,0.26,0
0.013771,0.0024541,0.034995,-0.0025539,0.0097323,-0.001305,0,0,0.032841,-0.015972,0,-0.0033929,0,0,0,0.035041,-0.0025994,0.0097323,-1.9877,0.014058,0.033237,1.0485e-06,0.38,0.26,0
0.014099,0.0024683,0.034865,-0.00293,0.0095805,-0.0011636,0,0,0.03287,-0.016264,0,-0.0030253,0,0,0,0.034903,-0.0029678,0.0095805,-1.7632,0.013839,0.033413,1.046e-06,0.39,0.26,0
0.014428,0.0024928,0.034505,-0.0029772,0.0094584,-0.00065467,0,0,0.036207,-0.01746,0,-0.0013256,0,0,0,0.034534,-0.0030057,0.0094584,-0.91862,0.013662,0.033135,1.0154e-06,0.4,0.26,0
0.014821,0.0025503,0.034536,-0.0019147,0.0097864,-0.0001344,0,0,0.046243,-0.020593,0,0.00044885,0,0,0,0.034562,-0.0019406,0.0097864,-0.038029,0.014136,0.032319,1.0058e-06,0.41,0.26,0
0.015353,0.0026705,0.035219,-0.00011663,0.010531,2.8534e-06,0,0,0.057172,-0.023906,0,0.0005945,0,0,0,0.035236,-0.00013291,0.010531,0.12917,0.015211,0.031447,1.0296e-06,0.42,0.26,0
0.01597,0.0028358,0.035299,0.00075343,0.010816,-1.1468e-05,0,0,0.06227,-0.025541,0,0.00011647,0,0,0,0.035304,0.00074885,0.010816,0.014382,0.015623,0.030783,9.9347e-07,0.43,0.26,0
0.016602,0.0029975,0.034963,0.00052922,0.010648,-0.00014727,0,0,0.063221,-0.026308,0,-0.00076582,0,0,0,0.034966,0.00052698,0.010648,-0.24251,0.01538,0.030658,9.5467e-07,0.44,0.26,0
0.017235,0.0031418,0.034804,0.00015896,0.010489,-0.00032162,0,0,0.06322,-0.026858,0,-0.0016724,0,0,0,0.034808,0.00015505,0.010489,-0.53275,0.015151,0.030815,9.5287e-07,0.45,0.26,0
0.017866,0.0032772,0.034579,-5.2415e-05,0.010358,-0.00037494,0,0,0.062975,-0.027067,0,-0.0019497,0,0,0,0.034584,-5.7536e-05,0.010358,-0.62172,0.014962,0.030785,9.4082e-07,0.46,0.26,0
0.018494,0.003407,0.034322,-0.00015358,0.010251,-0.00039192,0,0,0.062586,-0.027051,0,-0.002038,0,0,0,0.034328,-0.00015908,0.010251,-0.65262,0.014806,0.030638,9.2295e-07,0.47,0.26,0
0.019118,0.0035324,0.034069,-0.00018453,0.010165,-0.0004054,0,0,0.06215,-0.02691,0,-0.0021081,0,0,0,0.034075,-0.00019023,0.010165,-0.67916,0.014683,0.030439,9.0362e-07,0.48,0.26,0
0.019737,0.0036534,0.033837,-0.00017652,0.010098,-0.00042631,0,0,0.061721,-0.026714,0,-0.0022168,0,0,0,0.033843,-0.00018259,0.010098,-0.71898,0.014586,0.030226,8.851e-07,0.49,0.26,0
0.020352,0.00377,0.033631,-0.00015073,0.010044,-0.00045631,0,0,0.061327,-0.026507,0,-0.0023728,0,0,0,0.033638,-0.00015746,0.010044,-0.7746,0.014508,0.030024,8.6845e-07,0.5,0.26,0
0.020964,0.0038818,0.033454,-0.00012045,0.01,-0.00049343,0,0,0.06098,-0.026313,0,-0.0025659,0,0,0,0.033462,-0.00012813,0.01,-0.84255,0.014445,0.029844,8.5407e-07,0.51,0.26,0
0.021572,0.0039886,0.033303,-9.3389e-05,0.0099629,-0.00053466,0,0,0.060684,-0.026146,0,-0.0027803,0,0,0,0.033312,-0.00010227,0.0099629,-0.9176,0.014391,0.02969,8.4197e-07,0.52,0.26,0
0.022178,0.0040904,0.033176,-7.3571e-05,0.0099307,-0.00057707,0,0,0.060437,-0.026011,0,-0.0030008,0,0,0,0.033186,-8.382e-05,0.0099307,-0.99455,0.014344,0.029563,8.3197e-07,0.53,0.26,0
0.022781,0.004187,0.033069,-6.26e-05,0.0099019,-0.00061821,0,0,0.060234,-0.025908,0,-0.0032147,0,0,0,0.033081,-7.4306e-05,0.0099019,-1.069,0.014303,0.029462,8.2383e-07,0.54,0.26,0
0.023382,0.0042786,0.032979,-6.0601e-05,0.0098756,-0.00065625,0,0,0.06007,-0.025834,0,-0.0034125,0,0,0,0.032993,-7.3758e-05,0.0098756,-1.1378,0.014265,0.029383,8.1725e-07,0.55,0.26,0
0.023982,0.0043653,0.032904,-6.6822e-05,0.0098512,-0.00068992,0,0,0.059937,-0.025787,0,-0.0035876,0,0,0,0.032919,-8.1346e-05,0.0098512,-1.1985,0.014229,0.029324,8.1196e-07,0.56,0.26,0
0.024581,0.0044472,0.03284,-8.0052e-05,0.009828,-0.00071848,0,0,0.059831,-0.025761,0,-0.0037361,0,0,0,0.032856,-9.5793e-05,0.009828,-1.25,0.014196,0.029279,8.0771e-07,0.57,0.26,0
0.025179,0.0045246,0.032785,-9.8887e-05,0.0098059,-0.00074157,0,0,0.059746,-0.025752,0,-0.0038562,0,0,0,0.032802,-0.00011565,0.0098059,-1.2914,0.014164,0.029248,8.0427e-07,0.58,0.26,0
0.025776,0.0045976,0.032738,-0.00012192,0.0097847,-0.00075916,0,0,0.059678,-0.025757,0,-0.0039476,0,0,0,0.032755,-0.00013949,0.0097847,-1.323,0.014133,0.029225,8.0146e-07,0.59,0.26,0
0.026372,0.0046667,0.032696,-0.00014782,0.0097643,-0.00077145,0,0,0.059621,-0.025772,0,-0.0040115,0,0,0,0.032714,-0.00016597,0.0097643,-1.345,0.014104,0.029209,7.991e-07,0.6,0.26,0
0.026968,0.0047318,0.032658,-0.00017545,0.0097447,-0.00077878,0,0,0.059574,-0.025792,0,-0.0040497,0,0,0,0.032676,-0.00019394,0.0097447,-1.3582,0.014076,0.029198,7.9708e-07,0.61,0.26,0
0.027564,0.0047934,0.032623,-0.00020381,0.0097258,-0.0007816,0,0,0.059533,-0.025817,0,-0.0040643,0,0,0,0.032642,-0.00022243,0.0097258,-1.3634,0.014048,0.02919,7.953e-07,0.62,0.26,0
0.028159,0.0048516,0.032591,-0.00023212,0.0097076,-0.00078042,0,0,0.059497,-0.025843,0,-0.0040582,0,0,0,0.03261,-0.00025068,0.0097076,-1.3614,0.014022,0.029184,7.9367e-07,0.63,0.26,0
0.028754,0.0049067,0.032561,-0.00025976,0.0096903,-0.00077572,0,0,0.059463,-0.02587,0,-0.0040337,0,0,0,0.032579,-0.0002781,0.0096903,-1.3534,0.013997,0.029179,7.9214e-07,0.64,0.26,0
0.029348,0.0049588,0.032532,-0.00028627,0.0096736,-0.000768,0,0,0.059431,-0.025896,0,-0.0039936,0,0,0,0.03255,-0.00030425,0.0096736,-1.34,0.013973,0.029174,7.9067e-07,0.65,0.26,0
0.029942,0.005008,0.032504,-0.00031133,0.0096577,-0.00075772,0,0,0.0594,-0.02592,0,-0.0039401,0,0,0,0.032521,-0.00032883,0.0096577,-1.3222,0.01395,0.029169,7.8924e-07,0.66,0.26,0
0.030536,0.0050546,0.032477,-0.00033473,0.0096426,-0.00074529,0,0,0.059369,-0.025941,0,-0.0038755,0,0,0,0.032494,-0.00035167,0.0096426,-1.3007,0.013928,0.029162,7.8782e-07,0.67,0.26,0
0.03113,0.0050987,0.032451,-0.00035638,0.0096283,-0.00073109,0,0,0.059338,-0.02596,0,-0.0038017,0,0,0,0.032467,-0.00037268,0.0096283,-1.2761,0.013908,0.029155,7.8641e-07,0.68,0.26,0
0.031723,0.0051405,0.032425,-0.00037622,0.0096148,-0.00071542,0,0,0.059308,-0.025977,0,-0.0037202,0,0,0,0.032441,-0.00039184,0.0096148,-1.249,0.013888,0.029148,7.85e-07,0.69,0.26,0
0.032316,0.00518,0.032401,-0.00039429,0.0096019,-0.00069856,0,0,0.059277,-0.02599,0,-0.0036325,0,0,0,0.032416,-0.00040918,0.0096019,-1.2198,0.013869,0.029139,7.836e-07,0.7,0.26,0
0.032909,0.0052174,0.032377,-0.00041065,0.0095899,-0.00068073,0,0,0.059246,-0.026001,0,-0.0035398,0,0,0,0.032391,-0.00042479,0.0095899,-1.189,0.013852,0.02913,7.8221e-07,0.71,0.26,0
0.033501,0.0052528,0.032354,-0.00042539,0.0095785,-0.00066211,0,0,0.059216,-0.02601,0,-0.003443,0,0,0,0.032367,-0.00043877,0.0095785,-1.1568,0.013836,0.02912,7.8083e-07,0.72,0.26,0
0.034093,0.0052862,0.032331,-0.00043862,0.0095678,-0.00064284,0,0,0.059185,-0.026017,0,-0.0033428,0,0,0,0.032344,-0.00045124,0.0095678,-1.1235,0.01382,0.029109,7.7948e-07,0.73,0.26,0
0.034685,0.0053177,0.03231,-0.00045048,0.0095579,-0.00062305,0,0,0.059156,-0.026022,0,-0.0032398,0,0,0,0.032322,-0.00046234,0.0095579,-1.0892,0.013806,0.029098,7.7816e-07,0.74,0.26,0
0.035276,0.0053475,0.032289,-0.00046108,0.0095485,-0.0006028,0,0,0.059126,-0.026025,0,-0.0031346,0,0,0,0.032301,-0.00047219,0.0095485,-1.0542,0.013792,0.029087,7.7687e-07,0.75,0.26,0
0.035867,0.0053756,0.03227,-0.00047056,0.0095398,-0.00058216,0,0,0.059098,-0.026027,0,-0.0030273,0,0,0,0.03228,-0.00048092,0.0095398,-1.0184,0.01378,0.029076,7.7563e-07,0.76,0.26,0
0.036458,0.005402,0.032251,-0.00047903,0.0095317,-0.00056118,0,0,0.059071,-0.026028,0,-0.0029181,0,0,0,0.032261,-0.00048867,0.0095317,-0.98207,0.013768,0.029065,7.7443e-07,0.77,0.26,0
0.037049,0.0054269,0.032234,-0.00048662,0.0095241,-0.00053988,0,0,0.059045,-0.026028,0,-0.0028074,0,0,0,0.032243,-0.00049554,0.0095241,-0.94511,0.013757,0.029054,7.7328e-07,0.78,0.26,0
0.037639,0.0054502,0.032217,-0.00049343,0.0095171,-0.00051827,0,0,0.05902,-0.026027,0,-0.002695,0,0,0,0.032225,-0.00050165,0.0095171,-0.90758,0.013747,0.029044,7.7219e-07,0.79,0.26,0
0.038229,0.0054721,0.032201,-0.00049955,0.0095105,-0.00049637,0,0,0.058996,-0.026026,0,-0.0025811,0,0,0,0.032209,-0.0005071,0.0095105,-0.8695,0.013737,0.029034,7.7116e-07,0.8,0.26,0
0.038819,0.0054926,0.032187,-0.00050507,0.0095045,-0.00047417,0,0,0.058974,-0.026025,0,-0.0024657,0,0,0,0.032194,-0.00051196,0.0095045,-0.83086,0.013729,0.029024,7.7018e-07,0.81,0.26,0
0.039408,0.0055117,0.032173,-0.00051007,0.0094989,-0.00045167,0,0,0.058953,-0.026023,0,-0.0023487,0,0,0,0.032179,-0.00051632,0.0094989,-0.79167,0.013721,0.029015,7.6927e-07,0.82,0.26,0
0.039998,0.0055295,0.03216,-0.00051461,0.0094938,-0.00042888,0,0,0.058933,-0.026022,0,-0.0022302,0,0,0,0.032166,-0.00052025,0.0094938,-0.75191,0.013713,0.029006,7.6842e-07,0.83,0.26,0
0.040587,0.005546,0.032149,-0.00051874,0.009489,-0.00040577,0,0,0.058915,-0.02602,0,-0.00211,0,0,0,0.032154,-0.00052379,0.009489,-0.71158,0.013706,0.028998,7.6764e-07,0.84,0.26,0
0.041176,0.0055614,0.032138,-0.0005225,0.0094847,-0.00038236,0,0,0.058899,-0.026019,0,-0.0019882,0,0,0,0.032143,-0.00052699,0.0094847,-0.67068,0.0137,0.028991,7.6691e-07,0.85,0.26,0
0.041765,0.0055755,0.032128,-0.00052594,0.0094807,-0.00035863,0,0,0.058884,-0.026017,0,-0.0018649,0,0,0,0.032132,-0.00052989,0.0094807,-0.6292,0.013694,0.028984,7.6624e-07,0.86,0.26,0
0.042354,0.0055885,0.032119,-0.00052909,0.0094771,-0.0003346,0,0,0.05887,-0.026016,0,-0.0017399,0,0,0,0.032123,-0.00053253,0.0094771,-0.58714,0.013689,0.028977,7.6563e-07,0.87,0.26,0
0.042942,0.0056004,0.032111,-0.00053197,0.0094738,-0.00031025,0,0,0.058857,-0.026015,0,-0.0016133,0,0,0,0.032114,-0.00053493,0.0094738,-0.54453,0.013684,0.028972,7.6508e-07,0.88,0.26,0
0.043531,0.0056112,0.032104,-0.00053459,0.0094708,-0.00028561,0,0,0.058846,-0.026014,0,-0.0014852,0,0,0,0.032106,-0.0005371,0.0094708,-0.50136,0.01368,0.028967,7.6458e-07,0.89,0.26,0
0.044119,0.0056209,0.032097,-0.00053696,0.0094681,-0.00026069,0,0,0.058836,-0.026013,0,-0.0013556,0,0,0,0.032099,-0.00053906,0.0094681,-0.45767,0.013676,0.028962,7.6414e-07,0.9,0.26,0
0.044708,0.0056297,0.032092,-0.00053911,0.0094657,-0.00023548,0,0,0.058827,-0.026013,0,-0.0012245,0,0,0,0.032093,-0.00054082,0.0094657,-0.41347,0.013673,0.028958,7.6374e-07,0.91,0.26,0
0.045296,0.0056374,0.032087,-0.00054102,0.0094636,-0.00021002,0,0,0.058819,-0.026012,0,-0.0010921,0,0,0,0.032088,-0.00054238,0.0094636,-0.36881,0.01367,0.028954,7.634e-07,0.92,0.26,0
0.045884,0.0056442,0.032082,-0.00054271,0.0094618,-0.00018432,0,0,0.058813,-0.026012,0,-0.00095848,0,0,0,0.032083,-0.00054376,0.0094618,-0.32371,0.013667,0.028951,7.6309e-07,0.93,0.26,0
0.046472,0.00565,0.032078,-0.00054418,0.0094603,-0.00015841,0,0,0.058807,-0.026012,0,-0.00082373,0,0,0,0.032079,-0.00054496,0.0094603,-0.27822,0.013665,0.028949,7.6284e-07,0.94,0.26,0
0.04706,0.0056549,0.032075,-0.00054542,0.0094589,-0.00013231,0,0,0.058802,-0.026011,0,-0.000688,0,0,0,0.032076,-0.00054597,0.0094589,-0.23239,0.013663,0.028946,7.6262e-07,0.95,0.26,0
0.047648,0.0056589,0.032073,-0.00054645,0.0094579,-0.00010604,0,0,0.058799,-0.026011,0,-0.00055143,0,0,0,0.032073,-0.0005468,0.0094579,-0.18627,0.013661,0.028945,7.6245e-07,0.96,0.26,0
0.048236,0.005662,0.032071,-0.00054724,0.0094571,-7.965e-05,0,0,0.058796,-0.026011,0,-0.00041418,0,0,0,0.032071,-0.00054745,0.0094571,-0.13992,0.01366,0.028943,7.6232e-07,0.97,0.26,0
0.048824,0.0056642,0.032069,-0.00054781,0.0094565,-5.3156e-05,0,0,0.058794,-0.026011,0,-0.00027641,0,0,0,0.032069,-0.00054791,0.0094565,-0.093379,0.013659,0.028942,7.6222e-07,0.98,0.26,0
0.049412,0.0056655,0.032069,-0.00054815,0.0094561,-2.4487e-05,0,0,0.058792,-0.026011,0,-0.00012733,0,0,0,0.032069,-0.00054819,0.0094561,-0.043017,0.013659,0.028942,7.6217e-07,0.99,0.26,0
0.049706,0.005666,0.032068,-0.00054827,0.009456,-9.0854e-06,0,0,0.058792,-0.026011,0,-4.7244e-05,0,0,0,0.032068,-0.00054828,0.009456,-0.015961,0.013659,0.028942,7.6215e-07,1,0.26,0
0.00026773,0.00011104,0.035997,0.015016,0.015304,0.0042557,0,0,0.053802,-0.00074862,0,0.02213,0,0,0,0.03683,0.014183,0.015304,11.044,0.022106,0.022109,5.501e-07,0,0.27,0
0.00053802,0.00021784,0.036048,0.014664,0.015214,0.0041997,0,0,0.054171,-0.00143,0,0.021838,0,0,0,0.036847,0.013865,0.015214,10.732,0.021975,0.02234,5.6553e-07,0.01,0.27,0
0.0010834,0.00042291,0.036244,0.014068,0.015094,0.0040447,0,0,0.054992,-0.0026671,0,0.021032,0,0,0,0.036963,0.013349,0.015094,10.031,0.021802,0.022793,5.9625e-07,0.02,0.27,0
0.0016379,0.00061068,0.03653,0.013644,0.015052,0.0038405,0,0,0.055842,-0.0036608,0,0.01997,0,0,0,0.037161,0.013013,0.015052,9.2849,0.021742,0.023196,6.2446e-07,0.03,0.27,0
0.0022003,0.00078045,0.036811,0.013355,0.01505,0.0036189,0,0,0.05658,-0.0044063,0,0.018819,0,0,0,0.037361,0.012806,0.01505,8.5812,0.021739,0.023514,6.4737e-07,0.04,0.27,0
0.0027694,0.0009308,0.03707,0.013228,0.01509,0.0033612,0,0,0.05715,-0.0048393,0,0.017478,0,0,0,0.037539,0.01276,0.01509,7.8779,0.021796,0.023701,6.6192e-07,0.05,0.27,0
0.0033433,0.001058,0.037819,0.01338,0.01536,0.0032676,0,0,0.055015,-0.0047411,0,0.0159,0,0,0,0.038253,0.012946,0.01536,7.4803,0.022186,0.024192,7.2581e-07,0.06,0.27,0
0.0038776,0.0011606,0.037909,0.012983,0.015268,0.0028715,0,0,0.047301,-0.0044108,0,0.012063,0,0,0,0.038272,0.012619,0.015268,6.3746,0.022053,0.024442,7.7949e-07,0.07,0.27,0
0.0043009,0.0012499,0.036762,0.011696,0.014538,0.0020125,0,0,0.037402,-0.0044189,0,0.0067577,0,0,0,0.036962,0.011497,0.014538,4.4129,0.020999,0.024095,7.3224e-07,0.08,0.27,0
0.0046252,0.0013378,0.036647,0.010804,0.014235,0.001735,0,0,0.03125,-0.0046717,0,0.0046583,0,0,0,0.036769,0.010682,0.014235,3.7716,0.020562,0.024508,7.1919e-07,0.09,0.27,0
0.0049217,0.0014229,0.037132,0.010285,0.014225,0.0018265,0,0,0.029779,-0.0051225,0,0.0047489,0,0,0,0.037257,0.01016,0.014225,3.8796,0.020547,0.025312,7.6139e-07,0.1,0.27,0
0.0052208,0.0015033,0.037135,0.009602,0.014021,0.0017073,0,0,0.030048,-0.0057448,0,0.004439,0,0,0,0.037241,0.0094958,0.014021,3.5395,0.020253,0.025783,7.8961e-07,0.11,0.27,0
0.0055227,0.0015793,0.037131,0.0089627,0.013828,0.001535,0,0,0.030294,-0.0063251,0,0.003991,0,0,0,0.037216,0.0088783,0.013828,3.1144,0.019974,0.026216,8.1512e-07,0.12,0.27,0
0.0058267,0.00165,0.037086,0.0083818,0.01364,0.0013355,0,0,0.030479,-0.0068361,0,0.0034724,0,0,0,0.037149,0.0083188,0.01364,2.6619,0.019703,0.026573,8.3471e-07,0.13,0.27,0
0.0061323,0.0017153,0.037017,0.0078401,0.013457,0.0011401,0,0,0.030628,-0.007302,0,0.0029644,0,0,0,0.037062,0.0077948,0.013457,2.2375,0.019438,0.026888,8.5085e-07,0.14,0.27,0
0.0064393,0.0017755,0.036939,0.0073204,0.013278,0.00095614,0,0,0.03076,-0.0077446,0,0.002486,0,0,0,0.036971,0.0072889,0.013278,1.8498,0.019179,0.027187,8.6548e-07,0.15,0.27,0
0.0067475,0.0018308,0.03686,0.0068181,0.013104,0.00078258,0,0,0.030884,-0.0081711,0,0.0020347,0,0,0,0.036881,0.006797,0.013104,1.4936,0.018927,0.02748,8.7933e-07,0.16,0.27,0
0.0070569,0.0018815,0.036782,0.0063327,0.012934,0.00061793,0,0,0.031001,-0.008582,0,0.0016066,0,0,0,0.036795,0.0063196,0.012934,1.1643,0.018683,0.027765,8.9241e-07,0.17,0.27,0
0.0073675,0.0019278,0.036701,0.0058649,0.01277,0.00046185,0,0,0.03111,-0.0089762,0,0.0012008,0,0,0,0.036708,0.0058574,0.01277,0.85981,0.018445,0.028041,9.0454e-07,0.18,0.27,0
0.0076791,0.00197,0.036616,0.0054145,0.012609,0.00031483,0,0,0.031209,-0.0093531,0,0.00081857,0,0,0,0.03662,0.0054108,0.012609,0.57971,0.018213,0.028305,9.1556e-07,0.19,0.27,0
0.0079917,0.0020083,0.036527,0.0049807,0.012452,0.00017765,0,0,0.031297,-0.0097131,0,0.0004619,0,0,0,0.036529,0.0049793,0.012452,0.32407,0.017987,0.028556,9.2541e-07,0.2,0.27,0
0.0083051,0.0020431,0.036434,0.0045619,0.012299,5.0946e-05,0,0,0.031375,-0.010058,0,0.00013246,0,0,0,0.036434,0.0045615,0.012299,0.092804,0.017765,0.028795,9.3413e-07,0.21,0.27,0
0.0086192,0.0020745,0.036336,0.0041556,0.012148,-6.5099e-05,0,0,0.031445,-0.010389,0,-0.00016926,0,0,0,0.036337,0.0041552,0.012148,-0.11486,0.017546,0.029023,9.4184e-07,0.22,0.27,0
0.008934,0.0021028,0.036235,0.0037592,0.011998,-0.00017085,0,0,0.031508,-0.010711,0,-0.00044422,0,0,0,0.036236,0.003758,0.011998,-0.30052,0.017331,0.029243,9.4868e-07,0.23,0.27,0
0.0092494,0.0021283,0.036132,0.0033697,0.01185,-0.00026725,0,0,0.031566,-0.011025,0,-0.00069485,0,0,0,0.036134,0.0033673,0.01185,-0.46655,0.017117,0.029456,9.5482e-07,0.24,0.27,0
0.0095653,0.0021513,0.036026,0.0029849,0.011703,-0.00035567,0,0,0.03162,-0.011334,0,-0.00092474,0,0,0,0.036031,0.0029808,0.011703,-0.61595,0.016905,0.029667,9.6037e-07,0.25,0.27,0
0.0098818,0.0021719,0.03592,0.0026028,0.011557,-0.00043774,0,0,0.031672,-0.01164,0,-0.0011381,0,0,0,0.035926,0.0025968,0.011557,-0.75197,0.016693,0.029875,9.6544e-07,0.26,0.27,0
0.010199,0.0021904,0.035812,0.002222,0.01141,-0.00051513,0,0,0.031722,-0.011945,0,-0.0013393,0,0,0,0.03582,0.0022139,0.01141,-0.87778,0.016481,0.030082,9.7008e-07,0.27,0.27,0
0.010516,0.0022068,0.035703,0.0018414,0.011263,-0.0005893,0,0,0.031771,-0.012248,0,-0.0015322,0,0,0,0.035713,0.0018309,0.011263,-0.99612,0.016269,0.030289,9.7433e-07,0.28,0.27,0
0.010834,0.0022213,0.035592,0.0014599,0.011116,-0.0006614,0,0,0.03182,-0.012552,0,-0.0017196,0,0,0,0.035605,0.0014469,0.011116,-1.1091,0.016056,0.030496,9.7821e-07,0.29,0.27,0
0.011153,0.0022342,0.035481,0.0010762,0.010967,-0.00073221,0,0,0.031868,-0.012858,0,-0.0019037,0,0,0,0.035497,0.0010603,0.010967,-1.218,0.015841,0.030706,9.8179e-07,0.3,0.27,0
0.011472,0.0022454,0.03537,0.00068766,0.010817,-0.00080231,0,0,0.031918,-0.013168,0,-0.002086,0,0,0,0.035389,0.00066888,0.010817,-1.3238,0.015625,0.030921,9.8524e-07,0.31,0.27,0
0.011791,0.0022552,0.035261,0.00029057,0.010666,-0.00087236,0,0,0.031975,-0.013488,0,-0.0022681,0,0,0,0.035283,0.0002686,0.010666,-1.4274,0.015406,0.031146,9.8886e-07,0.32,0.27,0
0.012111,0.0022637,0.03516,-0.00012061,0.010512,-0.00094357,0,0,0.032042,-0.013822,0,-0.0024533,0,0,0,0.035185,-0.00014602,0.010512,-1.5301,0.015184,0.03139,9.9311e-07,0.33,0.27,0
0.012432,0.0022711,0.035069,-0.00055274,0.010355,-0.001018,0,0,0.032128,-0.01418,0,-0.0026469,0,0,0,0.035098,-0.00058197,0.010355,-1.6348,0.014957,0.031662,9.9858e-07,0.34,0.27,0
0.012754,0.0022775,0.034992,-0.0010129,0.010194,-0.0010982,0,0,0.032238,-0.014569,0,-0.0028553,0,0,0,0.035026,-0.0010465,0.010194,-1.7445,0.014724,0.03197,1.0057e-06,0.35,0.27,0
0.013077,0.0022831,0.034925,-0.0015034,0.010027,-0.0011823,0,0,0.032368,-0.014989,0,-0.0030741,0,0,0,0.034964,-0.0015418,0.010027,-1.856,0.014483,0.032314,1.014e-06,0.36,0.27,0
0.013401,0.0022886,0.034861,-0.002012,0.0098547,-0.0012499,0,0,0.032508,-0.015427,0,-0.0032497,0,0,0,0.034903,-0.0020544,0.0098547,-1.9386,0.014235,0.032674,1.0223e-06,0.37,0.27,0
0.013727,0.0022952,0.034806,-0.0025273,0.0096836,-0.0012414,0,0,0.032659,-0.015874,0,-0.0032275,0,0,0,0.034847,-0.0025688,0.0096836,-1.903,0.013987,0.033041,1.0305e-06,0.38,0.27,0
0.014054,0.0023054,0.034839,-0.0031134,0.0095178,-0.0011317,0,0,0.032918,-0.016421,0,-0.0029423,0,0,0,0.034874,-0.0031479,0.0095178,-1.7086,0.013748,0.033534,1.0472e-06,0.39,0.27,0
0.014385,0.0023189,0.034526,-0.0033343,0.0093575,-0.00068984,0,0,0.035074,-0.017453,0,-0.0014874,0,0,0,0.034553,-0.0033618,0.0093575,-0.94986,0.013516,0.033429,1.0431e-06,0.4,0.27,0
0.014751,0.0023503,0.03476,-0.0022825,0.0097434,-0.00026461,0,0,0.04194,-0.019348,0,-8.6909e-05,0,0,0,0.034788,-0.0023097,0.0097434,-0.19284,0.014074,0.0328,1.0831e-06,0.41,0.27,0
0.015223,0.0024399,0.035906,-0.00031373,0.010678,-0.00021764,0,0,0.05249,-0.021981,0,-9.796e-05,0,0,0,0.035929,-0.00033737,0.010678,-0.14355,0.015423,0.032228,1.1379e-06,0.42,0.27,0
0.015813,0.0025852,0.035921,0.00087796,0.01104,-4.796e-05,0,0,0.060878,-0.024568,0,0.00022266,0,0,0,0.035931,0.00086805,0.01104,0.00067528,0.015946,0.031252,1.0551e-06,0.43,0.27,0
0.016449,0.0027353,0.035299,0.00072113,0.010806,4.524e-05,0,0,0.063682,-0.026221,0,0.00023524,0,0,0,0.035301,0.00071965,0.010806,0.076122,0.015609,0.030803,9.7631e-07,0.44,0.27,0
0.017086,0.0028727,0.035066,0.00022348,0.010587,-6.22e-05,0,0,0.063645,-0.026944,0,-0.00032344,0,0,0,0.035067,0.00022212,0.010587,-0.10334,0.015292,0.030991,9.7225e-07,0.45,0.27,0
0.017722,0.0030057,0.034782,-2.6526e-05,0.010427,-9.1267e-05,0,0,0.063323,-0.027178,0,-0.00047459,0,0,0,0.034783,-2.8075e-05,0.010427,-0.15109,0.015061,0.030938,9.5623e-07,0.46,0.27,0
0.018353,0.0031357,0.034493,-0.00012895,0.010309,-0.00011723,0,0,0.062879,-0.02714,0,-0.00060958,0,0,0,0.034495,-0.00013053,0.010309,-0.19467,0.014891,0.030764,9.3564e-07,0.47,0.27,0
0.018979,0.0032626,0.034224,-0.00015059,0.010222,-0.00015557,0,0,0.062406,-0.026969,0,-0.00080897,0,0,0,0.034226,-0.00015228,0.010222,-0.25991,0.014765,0.030543,9.1458e-07,0.48,0.27,0
0.019601,0.0033858,0.033986,-0.00013268,0.010156,-0.00020723,0,0,0.061957,-0.02675,0,-0.0010776,0,0,0,0.033988,-0.00013471,0.010156,-0.34859,0.01467,0.030317,8.9512e-07,0.49,0.27,0
0.020218,0.0035045,0.03378,-9.9789e-05,0.010104,-0.00026845,0,0,0.061557,-0.02653,0,-0.0013959,0,0,0,0.033783,-0.0001025,0.010104,-0.45452,0.014595,0.030109,8.7814e-07,0.5,0.27,0
0.020832,0.0036183,0.033606,-6.5963e-05,0.010062,-0.00033457,0,0,0.061214,-0.026333,0,-0.0017397,0,0,0,0.03361,-6.9729e-05,0.010062,-0.56975,0.014534,0.029929,8.6382e-07,0.51,0.27,0
0.021443,0.0037269,0.03346,-3.8639e-05,0.010026,-0.00040141,0,0,0.060927,-0.026169,0,-0.0020873,0,0,0,0.033465,-4.3778e-05,0.010026,-0.68692,0.014483,0.029779,8.5202e-07,0.52,0.27,0
0.022051,0.00383,0.033338,-2.1178e-05,0.0099952,-0.00046572,0,0,0.060692,-0.026042,0,-0.0024217,0,0,0,0.033345,-2.7923e-05,0.0099952,-0.80009,0.014437,0.02966,8.4246e-07,0.53,0.27,0
0.022657,0.0039276,0.033237,-1.4489e-05,0.0099668,-0.00052514,0,0,0.060503,-0.025951,0,-0.0027307,0,0,0,0.033245,-2.2961e-05,0.0099668,-0.90493,0.014396,0.029568,8.348e-07,0.54,0.27,0
0.023261,0.0040199,0.033152,-1.8052e-05,0.0099403,-0.00057814,0,0,0.060351,-0.025892,0,-0.0030063,0,0,0,0.033162,-2.8257e-05,0.0099403,-0.99853,0.014358,0.029498,8.287e-07,0.55,0.27,0
0.023864,0.004107,0.033081,-3.0566e-05,0.0099151,-0.00062383,0,0,0.060231,-0.025859,0,-0.0032439,0,0,0,0.033093,-4.241e-05,0.0099151,-1.0792,0.014322,0.029447,8.2386e-07,0.56,0.27,0
0.024465,0.0041891,0.03302,-5.0372e-05,0.0098909,-0.00066189,0,0,0.060136,-0.025847,0,-0.0034418,0,0,0,0.033033,-6.3683e-05,0.0098909,-1.1464,0.014287,0.029411,8.2e-07,0.57,0.27,0
0.025066,0.0042665,0.032967,-7.5727e-05,0.0098674,-0.00069236,0,0,0.060059,-0.025852,0,-0.0036003,0,0,0,0.032982,-9.0279e-05,0.0098674,-1.2,0.014253,0.029387,8.1687e-07,0.58,0.27,0
0.025667,0.0043395,0.032921,-0.00010497,0.0098447,-0.00071559,0,0,0.059997,-0.025869,0,-0.0037211,0,0,0,0.032936,-0.00012051,0.0098447,-1.2409,0.01422,0.029371,8.1429e-07,0.59,0.27,0
0.026266,0.0044083,0.032879,-0.00013663,0.0098226,-0.00073213,0,0,0.059946,-0.025894,0,-0.0038071,0,0,0,0.032895,-0.00015289,0.0098226,-1.2699,0.014188,0.02936,8.1209e-07,0.6,0.27,0
0.026866,0.0044732,0.03284,-0.00016944,0.0098013,-0.00074264,0,0,0.059902,-0.025924,0,-0.0038617,0,0,0,0.032857,-0.00018616,0.0098013,-1.2883,0.014157,0.029353,8.1015e-07,0.61,0.27,0
0.027464,0.0045346,0.032804,-0.00020238,0.0097806,-0.00074781,0,0,0.059862,-0.025956,0,-0.0038886,0,0,0,0.032821,-0.00021934,0.0097806,-1.2974,0.014128,0.029348,8.0838e-07,0.62,0.27,0
0.028063,0.0045925,0.03277,-0.00023466,0.0097607,-0.00074836,0,0,0.059825,-0.025988,0,-0.0038915,0,0,0,0.032787,-0.00025164,0.0097607,-1.2984,0.014099,0.029343,8.0671e-07,0.63,0.27,0
0.028661,0.0046472,0.032738,-0.00026569,0.0097416,-0.00074498,0,0,0.05979,-0.026019,0,-0.0038739,0,0,0,0.032754,-0.00028252,0.0097416,-1.2926,0.014071,0.029339,8.0508e-07,0.64,0.27,0
0.029259,0.004699,0.032706,-0.00029506,0.0097232,-0.00073828,0,0,0.059755,-0.026048,0,-0.0038391,0,0,0,0.032722,-0.00031159,0.0097232,-1.2811,0.014045,0.029333,8.0347e-07,0.65,0.27,0
0.029856,0.004748,0.032675,-0.0003225,0.0097058,-0.00072884,0,0,0.05972,-0.026073,0,-0.00379,0,0,0,0.032691,-0.00033861,0.0097058,-1.2649,0.014019,0.029327,8.0187e-07,0.66,0.27,0
0.030453,0.0047944,0.032645,-0.00034785,0.0096891,-0.00071716,0,0,0.059685,-0.026096,0,-0.0037292,0,0,0,0.03266,-0.00036345,0.0096891,-1.2448,0.013995,0.02932,8.0025e-07,0.67,0.27,0
0.03105,0.0048384,0.032615,-0.00037109,0.0096733,-0.00070365,0,0,0.059649,-0.026115,0,-0.003659,0,0,0,0.03263,-0.00038611,0.0096733,-1.2216,0.013973,0.029311,7.9863e-07,0.68,0.27,0
0.031646,0.00488,0.032587,-0.00039221,0.0096583,-0.00068869,0,0,0.059614,-0.026131,0,-0.0035812,0,0,0,0.032601,-0.00040661,0.0096583,-1.1959,0.013951,0.029302,7.9699e-07,0.69,0.27,0
0.032242,0.0049193,0.032559,-0.00041131,0.0096442,-0.00067257,0,0,0.059577,-0.026144,0,-0.0034974,0,0,0,0.032572,-0.00042504,0.0096442,-1.1683,0.01393,0.029291,7.9536e-07,0.7,0.27,0
0.032837,0.0049566,0.032531,-0.0004285,0.0096308,-0.00065552,0,0,0.059541,-0.026154,0,-0.0034087,0,0,0,0.032544,-0.00044155,0.0096308,-1.1391,0.013911,0.029279,7.9374e-07,0.71,0.27,0
0.033433,0.0049919,0.032505,-0.0004439,0.0096183,-0.00063774,0,0,0.059505,-0.026162,0,-0.0033163,0,0,0,0.032517,-0.00045626,0.0096183,-1.1086,0.013893,0.029267,7.9213e-07,0.72,0.27,0
0.034028,0.0050252,0.032479,-0.00045768,0.0096065,-0.00061938,0,0,0.059469,-0.026167,0,-0.0032208,0,0,0,0.032491,-0.00046934,0.0096065,-1.0771,0.013876,0.029254,7.9055e-07,0.73,0.27,0
0.034622,0.0050568,0.032455,-0.00046999,0.0095955,-0.00060053,0,0,0.059434,-0.02617,0,-0.0031228,0,0,0,0.032466,-0.00048095,0.0095955,-1.0447,0.01386,0.029241,7.8901e-07,0.74,0.27,0
0.035216,0.0050865,0.032431,-0.00048097,0.0095851,-0.00058129,0,0,0.0594,-0.026172,0,-0.0030227,0,0,0,0.032442,-0.00049125,0.0095851,-1.0116,0.013845,0.029228,7.8752e-07,0.75,0.27,0
0.03581,0.0051146,0.032409,-0.0004908,0.0095755,-0.00056169,0,0,0.059367,-0.026172,0,-0.0029208,0,0,0,0.032419,-0.0005004,0.0095755,-0.97791,0.013831,0.029215,7.8608e-07,0.76,0.27,0
0.036404,0.005141,0.032388,-0.00049959,0.0095665,-0.00054177,0,0,0.059335,-0.026172,0,-0.0028172,0,0,0,0.032397,-0.00050852,0.0095665,-0.94361,0.013818,0.029202,7.8469e-07,0.77,0.27,0
0.036997,0.0051659,0.032368,-0.00050748,0.0095581,-0.00052156,0,0,0.059305,-0.02617,0,-0.0027121,0,0,0,0.032376,-0.00051576,0.0095581,-0.90876,0.013806,0.029189,7.8337e-07,0.78,0.27,0
0.03759,0.0051892,0.032349,-0.00051458,0.0095503,-0.00050105,0,0,0.059276,-0.026169,0,-0.0026054,0,0,0,0.032356,-0.00052223,0.0095503,-0.87336,0.013795,0.029177,7.8212e-07,0.79,0.27,0
0.038182,0.0052111,0.032331,-0.000521,0.009543,-0.00048024,0,0,0.059249,-0.026166,0,-0.0024972,0,0,0,0.032338,-0.00052803,0.009543,-0.83739,0.013784,0.029165,7.8094e-07,0.8,0.27,0
0.038775,0.0052316,0.032314,-0.00052683,0.0095363,-0.00045913,0,0,0.059223,-0.026164,0,-0.0023875,0,0,0,0.032321,-0.00053326,0.0095363,-0.80086,0.013775,0.029154,7.7983e-07,0.81,0.27,0
0.039367,0.0052508,0.032299,-0.00053214,0.00953,-0.0004377,0,0,0.059199,-0.026162,0,-0.002276,0,0,0,0.032305,-0.00053798,0.00953,-0.76374,0.013766,0.029144,7.7879e-07,0.82,0.27,0
0.039959,0.0052686,0.032285,-0.00053699,0.0095243,-0.00041595,0,0,0.059177,-0.026159,0,-0.0021629,0,0,0,0.03229,-0.00054227,0.0095243,-0.72601,0.013757,0.029134,7.7782e-07,0.83,0.27,0
0.04055,0.0052851,0.032271,-0.00054145,0.009519,-0.00039386,0,0,0.059156,-0.026157,0,-0.0020481,0,0,0,0.032276,-0.00054618,0.009519,-0.68766,0.01375,0.029125,7.7693e-07,0.84,0.27,0
0.041142,0.0053005,0.032259,-0.00054554,0.0095141,-0.00037144,0,0,0.059137,-0.026155,0,-0.0019315,0,0,0,0.032264,-0.00054976,0.0095141,-0.64867,0.013743,0.029116,7.7611e-07,0.85,0.27,0
0.041733,0.0053146,0.032248,-0.00054932,0.0095097,-0.00034867,0,0,0.05912,-0.026153,0,-0.0018131,0,0,0,0.032252,-0.00055303,0.0095097,-0.60905,0.013736,0.029109,7.7536e-07,0.86,0.27,0
0.042324,0.0053276,0.032238,-0.00055279,0.0095056,-0.00032555,0,0,0.059105,-0.026152,0,-0.0016929,0,0,0,0.032241,-0.00055604,0.0095056,-0.5688,0.01373,0.029102,7.7467e-07,0.87,0.27,0
0.042915,0.0053395,0.032229,-0.00055599,0.0095019,-0.00030209,0,0,0.05909,-0.02615,0,-0.0015709,0,0,0,0.032232,-0.00055879,0.0095019,-0.52791,0.013725,0.029095,7.7405e-07,0.88,0.27,0
0.043506,0.0053503,0.032221,-0.00055893,0.0094985,-0.00027829,0,0,0.059078,-0.026149,0,-0.0014471,0,0,0,0.032223,-0.0005613,0.0094985,-0.4864,0.01372,0.02909,7.7349e-07,0.89,0.27,0
0.044097,0.0053601,0.032213,-0.00056161,0.0094955,-0.00025416,0,0,0.059066,-0.026149,0,-0.0013216,0,0,0,0.032215,-0.00056359,0.0094955,-0.44431,0.013716,0.029085,7.7299e-07,0.9,0.27,0
0.044687,0.0053689,0.032207,-0.00056404,0.0094928,-0.00022973,0,0,0.059056,-0.026148,0,-0.0011946,0,0,0,0.032208,-0.00056566,0.0094928,-0.40165,0.013712,0.02908,7.7255e-07,0.91,0.27,0
0.045278,0.0053766,0.032201,-0.00056622,0.0094905,-0.000205,0,0,0.059048,-0.026147,0,-0.001066,0,0,0,0.032202,-0.00056751,0.0094905,-0.35846,0.013708,0.029076,7.7216e-07,0.92,0.27,0
0.045868,0.0053834,0.032196,-0.00056816,0.0094884,-0.00018,0,0,0.05904,-0.026147,0,-0.00093602,0,0,0,0.032197,-0.00056915,0.0094884,-0.31478,0.013705,0.029073,7.7182e-07,0.93,0.27,0
0.046459,0.0053892,0.032192,-0.00056984,0.0094866,-0.00015476,0,0,0.059034,-0.026147,0,-0.00080477,0,0,0,0.032193,-0.00057058,0.0094866,-0.27067,0.013703,0.02907,7.7154e-07,0.94,0.27,0
0.047049,0.0053941,0.032188,-0.00057127,0.0094851,-0.00012931,0,0,0.059028,-0.026147,0,-0.00067241,0,0,0,0.032189,-0.00057179,0.0094851,-0.22617,0.013701,0.029068,7.713e-07,0.95,0.27,0
0.047639,0.0053981,0.032185,-0.00057245,0.0094839,-0.00010367,0,0,0.059024,-0.026147,0,-0.00053909,0,0,0,0.032186,-0.00057279,0.0094839,-0.18134,0.013699,0.029066,7.7111e-07,0.96,0.27,0
0.048229,0.0054012,0.032183,-0.00057337,0.009483,-7.7886e-05,0,0,0.059021,-0.026146,0,-0.00040501,0,0,0,0.032183,-0.00057357,0.009483,-0.13624,0.013698,0.029064,7.7096e-07,0.97,0.27,0
0.04882,0.0054034,0.032182,-0.00057403,0.0094823,-5.1988e-05,0,0,0.059018,-0.026146,0,-0.00027034,0,0,0,0.032182,-0.00057412,0.0094823,-0.090941,0.013697,0.029063,7.7085e-07,0.98,0.27,0
0.04941,0.0054047,0.032181,-0.00057443,0.0094819,-2.3905e-05,0,0,0.059017,-0.026146,0,-0.0001243,0,0,0,0.032181,-0.00057446,0.0094819,-0.041817,0.013696,0.029063,7.7079e-07,0.99,0.27,0
0.049705,0.0054052,0.03218,-0.00057456,0.0094818,-8.7946e-06,0,0,0.059017,-0.026146,0,-4.5732e-05,0,0,0,0.03218,-0.00057457,0.0094818,-0.015385,0.013696,0.029062,7.7077e-07,1,0.27,0
0.0002708,0.00010352,0.03641,0.015195,0.015481,0.0039646,0,0,0.054413,-0.00074471,0,0.020616,0,0,0,0.037129,0.014476,0.015481,10.25,0.022362,0.022168,5.555e-07,0,0.28,0
0.00054413,0.00020349,0.03646,0.014846,0.015392,0.0039111,0,0,0.054778,-0.001419,0,0.020338,0,0,0,0.03715,0.014157,0.015392,9.9559,0.022233,0.022402,5.7142e-07,0.01,0.28,0
0.0010956,0.00039619,0.036655,0.014262,0.015275,0.0037623,0,0,0.055588,-0.002635,0,0.019564,0,0,0,0.037274,0.013643,0.015275,9.2955,0.022064,0.02286,6.0307e-07,0.02,0.28,0
0.0016559,0.0005741,0.036944,0.013859,0.015241,0.0035603,0,0,0.056429,-0.0035939,0,0.018514,0,0,0,0.037484,0.013318,0.015241,8.5772,0.022015,0.023265,6.3192e-07,0.03,0.28,0
0.0022241,0.00073649,0.037247,0.013603,0.015255,0.0033318,0,0,0.05718,-0.0042956,0,0.017326,0,0,0,0.037711,0.013139,0.015255,7.8732,0.022035,0.023586,6.5568e-07,0.04,0.28,0
0.0027995,0.00088246,0.037581,0.013532,0.015334,0.0030742,0,0,0.057842,-0.0046845,0,0.015986,0,0,0,0.037971,0.013141,0.015334,7.1707,0.022149,0.02381,6.7354e-07,0.05,0.28,0
0.003381,0.0010115,0.038112,0.013591,0.015511,0.0029571,0,0,0.054788,-0.0045096,0,0.014195,0,0,0,0.03847,0.013234,0.015511,6.7631,0.022405,0.024181,7.1512e-07,0.06,0.28,0
0.0038992,0.0011186,0.038187,0.013114,0.01539,0.0027388,0,0,0.04469,-0.0040613,0,0.010701,0,0,0,0.038505,0.012796,0.01539,6.1009,0.022231,0.024521,7.5675e-07,0.07,0.28,0
0.0042806,0.0012066,0.037642,0.011949,0.014877,0.0022331,0,0,0.034396,-0.0041593,0,0.0067266,0,0,0,0.037858,0.011733,0.014877,4.8603,0.02149,0.024709,7.5851e-07,0.08,0.28,0
0.0045869,0.0012902,0.037568,0.011027,0.014579,0.0019787,0,0,0.030504,-0.0046836,0,0.0051708,0,0,0,0.037721,0.010875,0.014579,4.2105,0.021058,0.0252,7.7109e-07,0.09,0.28,0
0.0048886,0.0013712,0.037614,0.010438,0.014416,0.0019158,0,0,0.030158,-0.0051707,0,0.0049811,0,0,0,0.03775,0.010302,0.014416,4.0132,0.020823,0.02564,7.9122e-07,0.1,0.28,0
0.0051901,0.0014463,0.037391,0.0098003,0.014157,0.0017632,0,0,0.030204,-0.0056644,0,0.0045843,0,0,0,0.037504,0.0096872,0.014157,3.6445,0.02045,0.025874,8.007e-07,0.11,0.28,0
0.0054927,0.0015167,0.037268,0.0091731,0.013932,0.001597,0,0,0.030337,-0.0061872,0,0.0041523,0,0,0,0.03736,0.0090817,0.013932,3.2466,0.020125,0.026193,8.1704e-07,0.12,0.28,0
0.0057968,0.0015823,0.037186,0.0085848,0.013731,0.0014098,0,0,0.030491,-0.0066902,0,0.0036654,0,0,0,0.037256,0.0085146,0.013731,2.8187,0.019834,0.026521,8.3435e-07,0.13,0.28,0
0.0061025,0.0016429,0.037108,0.0080292,0.013541,0.0012187,0,0,0.030637,-0.0071656,0,0.0031687,0,0,0,0.03716,0.0079774,0.013541,2.399,0.01956,0.026838,8.5054e-07,0.14,0.28,0
0.0064096,0.0016987,0.037029,0.007498,0.013358,0.0010348,0,0,0.030772,-0.0076182,0,0.0026905,0,0,0,0.037066,0.0074611,0.013358,2.0073,0.019295,0.027142,8.6561e-07,0.15,0.28,0
0.0067179,0.0017497,0.036949,0.0069861,0.01318,0.0008613,0,0,0.030899,-0.0080526,0,0.0022394,0,0,0,0.036974,0.0069607,0.01318,1.6477,0.019038,0.027438,8.7974e-07,0.16,0.28,0
0.0070275,0.0017962,0.036866,0.0064917,0.013007,0.00069838,0,0,0.031016,-0.0084703,0,0.0018158,0,0,0,0.036883,0.0064751,0.013007,1.3186,0.018788,0.027725,8.9296e-07,0.17,0.28,0
0.0073383,0.0018386,0.036781,0.0060147,0.012839,0.00054571,0,0,0.031125,-0.0088713,0,0.0014188,0,0,0,0.036791,0.0060045,0.012839,1.0177,0.018545,0.028003,9.0519e-07,0.18,0.28,0
0.00765,0.001877,0.036693,0.0055546,0.012674,0.00040315,0,0,0.031224,-0.0092555,0,0.0010482,0,0,0,0.036698,0.0055489,0.012674,0.74331,0.018307,0.028269,9.1633e-07,0.19,0.28,0
0.0079627,0.0019116,0.0366,0.0051105,0.012513,0.00027077,0,0,0.031313,-0.0096234,0,0.00070399,0,0,0,0.036603,0.0051078,0.012513,0.49404,0.018074,0.028523,9.2632e-07,0.2,0.28,0
0.0082763,0.0019429,0.036503,0.0046811,0.012355,0.00014858,0,0,0.031392,-0.0099762,0,0.0003863,0,0,0,0.036504,0.0046801,0.012355,0.26872,0.017846,0.028765,9.3519e-07,0.21,0.28,0
0.0085906,0.0019709,0.036402,0.0042645,0.0122,3.6401e-05,0,0,0.031462,-0.010316,0,9.4642e-05,0,0,0,0.036402,0.0042641,0.0122,0.065937,0.017622,0.028997,9.4303e-07,0.22,0.28,0
0.0089055,0.001996,0.036297,0.0038583,0.012047,-6.6276e-05,0,0,0.031525,-0.010645,0,-0.00017232,0,0,0,0.036297,0.0038578,0.012047,-0.11617,0.017401,0.029219,9.4994e-07,0.23,0.28,0
0.0092211,0.0020184,0.036189,0.0034603,0.011895,-0.00016031,0,0,0.031582,-0.010965,0,-0.00041681,0,0,0,0.03619,0.0034592,0.011895,-0.27985,0.017181,0.029434,9.5603e-07,0.24,0.28,0
0.0095372,0.0020382,0.036078,0.0030684,0.011744,-0.00024685,0,0,0.031635,-0.011278,0,-0.0006418,0,0,0,0.036081,0.0030662,0.011744,-0.42773,0.016964,0.029644,9.6142e-07,0.25,0.28,0
0.0098538,0.0020558,0.035965,0.0026807,0.011594,-0.00032721,0,0,0.031683,-0.011587,0,-0.00085076,0,0,0,0.035969,0.0026772,0.011594,-0.56255,0.016747,0.02985,9.6617e-07,0.26,0.28,0
0.010171,0.0020712,0.03585,0.0022959,0.011444,-0.00040279,0,0,0.031728,-0.011892,0,-0.0010472,0,0,0,0.035855,0.0022908,0.011444,-0.68705,0.01653,0.030052,9.7033e-07,0.27,0.28,0
0.010488,0.0020846,0.035732,0.0019126,0.011293,-0.00047488,0,0,0.03177,-0.012195,0,-0.0012347,0,0,0,0.035739,0.0019056,0.011293,-0.80374,0.016313,0.030253,9.7393e-07,0.28,0.28,0
0.010806,0.0020961,0.035611,0.0015294,0.011142,-0.00054473,0,0,0.03181,-0.012497,0,-0.0014163,0,0,0,0.03562,0.0015204,0.011142,-0.91487,0.016094,0.030451,9.7698e-07,0.29,0.28,0
0.011125,0.0021059,0.035487,0.0011446,0.01099,-0.00061351,0,0,0.031847,-0.012798,0,-0.0015951,0,0,0,0.035498,0.0011334,0.01099,-1.0225,0.015874,0.03065,9.7954e-07,0.3,0.28,0
0.011443,0.0021141,0.03536,0.00075593,0.010835,-0.00068255,0,0,0.031883,-0.013103,0,-0.0017746,0,0,0,0.035374,0.00074218,0.010835,-1.1289,0.01565,0.03085,9.817e-07,0.31,0.28,0
0.011762,0.0021207,0.035232,0.00035975,0.010678,-0.0007536,0,0,0.031921,-0.013413,0,-0.0019594,0,0,0,0.035249,0.00034317,0.010678,-1.2367,0.015423,0.031056,9.8364e-07,0.32,0.28,0
0.012082,0.0021259,0.035104,-4.8619e-05,0.010517,-0.00082909,0,0,0.031964,-0.013735,0,-0.0021556,0,0,0,0.035124,-6.8461e-05,0.010517,-1.3495,0.015191,0.031274,9.8563e-07,0.33,0.28,0
0.012401,0.0021298,0.034978,-0.00047498,0.010351,-0.00091202,0,0,0.032015,-0.014074,0,-0.0023713,0,0,0,0.035002,-0.00049872,0.010351,-1.4716,0.014951,0.031509,9.8802e-07,0.34,0.28,0
0.012722,0.0021324,0.034857,-0.00092533,0.01018,-0.0010044,0,0,0.032081,-0.014436,0,-0.0026114,0,0,0,0.034886,-0.00095379,0.01018,-1.6053,0.014704,0.031772,9.9119e-07,0.35,0.28,0
0.013043,0.002134,0.03475,-0.0014045,0.010004,-0.0011026,0,0,0.03217,-0.014831,0,-0.0028668,0,0,0,0.034784,-0.0014383,0.010004,-1.7438,0.01445,0.032071,9.9585e-07,0.36,0.28,0
0.013365,0.0021351,0.034681,-0.001919,0.0098287,-0.0011897,0,0,0.032308,-0.015272,0,-0.0030932,0,0,0,0.03472,-0.0019578,0.0098287,-1.8588,0.014197,0.032433,1.0041e-06,0.37,0.28,0
0.013689,0.0021366,0.034719,-0.0024903,0.0096686,-0.001237,0,0,0.032566,-0.015807,0,-0.0032162,0,0,0,0.03476,-0.0025316,0.0096686,-1.9021,0.013966,0.032933,1.0221e-06,0.38,0.28,0
0.014017,0.0021399,0.034912,-0.003204,0.0095125,-0.0012456,0,0,0.03302,-0.016531,0,-0.0032386,0,0,0,0.034954,-0.0032456,0.0095125,-1.8713,0.01374,0.033685,1.0565e-06,0.39,0.28,0
0.01435,0.0021448,0.034931,-0.003725,0.0093618,-0.0010229,0,0,0.033934,-0.017329,0,-0.0025586,0,0,0,0.034967,-0.003761,0.0093618,-1.4742,0.013523,0.034116,1.0808e-06,0.4,0.28,0
0.014693,0.0021637,0.035113,-0.0030023,0.0096332,-0.0006231,0,0,0.038348,-0.018329,0,-0.0013013,0,0,0,0.035141,-0.0030305,0.0096332,-0.80432,0.013915,0.033696,1.0955e-06,0.41,0.28,0
0.015116,0.0022284,0.035711,-0.00084845,0.010459,-0.00026285,0,0,0.049133,-0.02064,0,-0.0001058,0,0,0,0.035733,-0.00087033,0.010459,-0.24806,0.015107,0.032498,1.0847e-06,0.42,0.28,0
0.015682,0.0023427,0.035776,0.00083768,0.010984,0.00011923,0,0,0.05994,-0.023927,0,0.0010851,0,0,0,0.035787,0.00082674,0.010984,0.27126,0.015866,0.031168,1.0216e-06,0.43,0.28,0
0.016319,0.002473,0.035417,0.00082368,0.010872,0.00028644,0,0,0.063817,-0.026126,0,0.0014895,0,0,0,0.035421,0.00082006,0.010872,0.47635,0.015704,0.03083,9.8312e-07,0.44,0.28,0
0.016958,0.0026029,0.035132,0.00026193,0.010618,0.00024154,0,0,0.063736,-0.026926,0,0.001256,0,0,0,0.035135,0.00025878,0.010618,0.39772,0.015337,0.031022,9.7682e-07,0.45,0.28,0
0.017594,0.0027336,0.034817,9.3051e-06,0.010448,0.00021067,0,0,0.06336,-0.02714,0,0.0010955,0,0,0,0.03482,6.6709e-06,0.010448,0.34737,0.015091,0.030943,9.5824e-07,0.46,0.28,0
0.018225,0.0028642,0.034526,-7.8232e-05,0.010334,0.00016057,0,0,0.062898,-0.027073,0,0.00083494,0,0,0,0.034528,-8.0116e-05,0.010334,0.26617,0.014927,0.030753,9.3686e-07,0.47,0.28,0
0.018852,0.002993,0.034269,-8.5045e-05,0.010255,8.871e-05,0,0,0.062435,-0.026884,0,0.00046129,0,0,0,0.03427,-8.6187e-05,0.010255,0.14798,0.014813,0.030528,9.1618e-07,0.48,0.28,0
0.019474,0.0031184,0.034048,-5.6961e-05,0.010197,1.884e-06,0,0,0.062011,-0.026661,0,9.7979e-06,0,0,0,0.034048,-5.7676e-05,0.010197,0.0029826,0.014729,0.030309,8.9774e-07,0.49,0.28,0
0.020092,0.0032394,0.033862,-1.9333e-05,0.010153,-9.229e-05,0,0,0.061643,-0.026447,0,-0.00047991,0,0,0,0.033863,-2.0136e-05,0.010153,-0.15636,0.014665,0.030114,8.8206e-07,0.5,0.28,0
0.020707,0.0033551,0.033707,1.4539e-05,0.010116,-0.00018752,0,0,0.061335,-0.026265,0,-0.00097511,0,0,0,0.033708,1.3073e-05,0.010116,-0.31921,0.014613,0.02995,8.6913e-07,0.51,0.28,0
0.021319,0.0034652,0.033578,3.8334e-05,0.010085,-0.00027917,0,0,0.061082,-0.026121,0,-0.0014517,0,0,0,0.033581,3.569e-05,0.010085,-0.47719,0.014567,0.029819,8.5868e-07,0.52,0.28,0
0.021928,0.0035695,0.033471,4.975e-05,0.010056,-0.00036409,0,0,0.060879,-0.026017,0,-0.0018933,0,0,0,0.033476,4.5545e-05,0.010056,-0.62437,0.014526,0.029717,8.5036e-07,0.53,0.28,0
0.022536,0.003668,0.033383,4.8768e-05,0.010029,-0.0004403,0,0,0.060718,-0.02595,0,-0.0022896,0,0,0,0.033389,4.2776e-05,0.010029,-0.75689,0.014487,0.029642,8.4382e-07,0.54,0.28,0
0.023143,0.0037608,0.033308,3.6631e-05,0.010003,-0.0005067,0,0,0.060592,-0.025914,0,-0.0026348,0,0,0,0.033316,2.8787e-05,0.010003,-0.87253,0.014449,0.029589,8.387e-07,0.55,0.28,0
0.023748,0.0038481,0.033244,1.5224e-05,0.0099779,-0.00056289,0,0,0.060493,-0.025903,0,-0.002927,0,0,0,0.033254,5.5973e-06,0.0099779,-0.9704,0.014413,0.029552,8.3468e-07,0.56,0.28,0
0.024353,0.0039302,0.03319,-1.3348e-05,0.0099529,-0.000609,0,0,0.060415,-0.025912,0,-0.0031668,0,0,0,0.033201,-2.4582e-05,0.0099529,-1.0506,0.014376,0.029529,8.3148e-07,0.57,0.28,0
0.024956,0.0040075,0.033141,-4.7014e-05,0.0099282,-0.00064552,0,0,0.060353,-0.025936,0,-0.0033567,0,0,0,0.033154,-5.9615e-05,0.0099282,-1.114,0.014341,0.029515,8.2888e-07,0.58,0.28,0
0.02556,0.0040803,0.033097,-8.3903e-05,0.009904,-0.0006732,0,0,0.060302,-0.025968,0,-0.0035007,0,0,0,0.033111,-9.7594e-05,0.009904,-1.162,0.014306,0.029508,8.2669e-07,0.59,0.28,0
0.026163,0.0041488,0.033057,-0.00012241,0.0098803,-0.00069295,0,0,0.060258,-0.026007,0,-0.0036034,0,0,0,0.033071,-0.00013691,0.0098803,-1.1961,0.014271,0.029504,8.2476e-07,0.6,0.28,0
0.026765,0.0042134,0.033018,-0.00016124,0.0098571,-0.00070574,0,0,0.060219,-0.026048,0,-0.0036698,0,0,0,0.033033,-0.00017627,0.0098571,-1.2181,0.014238,0.029502,8.2298e-07,0.61,0.28,0
0.027367,0.0042743,0.032982,-0.00019937,0.0098347,-0.00071251,0,0,0.060182,-0.026088,0,-0.0037051,0,0,0,0.032997,-0.00021468,0.0098347,-1.2298,0.014206,0.0295,8.2127e-07,0.62,0.28,0
0.027969,0.0043319,0.032946,-0.00023604,0.009813,-0.0007142,0,0,0.060146,-0.026127,0,-0.0037139,0,0,0,0.032961,-0.00025143,0.009813,-1.2326,0.014174,0.029498,8.1958e-07,0.63,0.28,0
0.02857,0.0043863,0.032911,-0.00027074,0.0097921,-0.00071166,0,0,0.060109,-0.026163,0,-0.0037006,0,0,0,0.032926,-0.00028602,0.0097921,-1.2283,0.014144,0.029494,8.1787e-07,0.64,0.28,0
0.029171,0.0044378,0.032877,-0.00030313,0.0097721,-0.00070563,0,0,0.060072,-0.026195,0,-0.0036693,0,0,0,0.032892,-0.00031815,0.0097721,-1.2179,0.014115,0.029489,8.1613e-07,0.65,0.28,0
0.029771,0.0044865,0.032843,-0.00033301,0.0097529,-0.00069677,0,0,0.060034,-0.026223,0,-0.0036232,0,0,0,0.032857,-0.00034766,0.0097529,-1.2028,0.014088,0.029482,8.1435e-07,0.66,0.28,0
0.030371,0.0045327,0.032809,-0.00036033,0.0097347,-0.00068567,0,0,0.059994,-0.026247,0,-0.0035655,0,0,0,0.032824,-0.00037452,0.0097347,-1.1839,0.014061,0.029474,8.1254e-07,0.67,0.28,0
0.030971,0.0045764,0.032777,-0.00038513,0.0097174,-0.00067278,0,0,0.059954,-0.026267,0,-0.0034985,0,0,0,0.03279,-0.00039879,0.0097174,-1.1619,0.014036,0.029464,8.1069e-07,0.68,0.28,0
0.03157,0.0046179,0.032744,-0.00040748,0.0097011,-0.00065851,0,0,0.059913,-0.026282,0,-0.0034242,0,0,0,0.032757,-0.00042058,0.0097011,-1.1376,0.014013,0.029452,8.0883e-07,0.69,0.28,0
0.032169,0.0046571,0.032713,-0.00042754,0.0096856,-0.00064315,0,0,0.059871,-0.026294,0,-0.0033444,0,0,0,0.032725,-0.00044004,0.0096856,-1.1115,0.01399,0.029439,8.0696e-07,0.7,0.28,0
0.032768,0.0046943,0.032682,-0.00044548,0.009671,-0.00062696,0,0,0.059829,-0.026303,0,-0.0032602,0,0,0,0.032694,-0.00045736,0.009671,-1.084,0.013969,0.029425,8.0509e-07,0.71,0.28,0
0.033366,0.0047295,0.032652,-0.00046148,0.0096573,-0.00061013,0,0,0.059788,-0.026309,0,-0.0031727,0,0,0,0.032664,-0.00047274,0.0096573,-1.0553,0.013949,0.02941,8.0325e-07,0.72,0.28,0
0.033964,0.0047628,0.032624,-0.00047573,0.0096444,-0.00059279,0,0,0.059746,-0.026312,0,-0.0030825,0,0,0,0.032634,-0.00048636,0.0096444,-1.0258,0.013931,0.029395,8.0145e-07,0.73,0.28,0
0.034561,0.0047943,0.032596,-0.00048843,0.0096324,-0.00057504,0,0,0.059706,-0.026314,0,-0.0029902,0,0,0,0.032606,-0.00049844,0.0096324,-0.99556,0.013913,0.02938,7.9969e-07,0.74,0.28,0
0.035158,0.0048241,0.03257,-0.00049976,0.0096211,-0.00055695,0,0,0.059667,-0.026314,0,-0.0028961,0,0,0,0.032579,-0.00050916,0.0096211,-0.9647,0.013897,0.029365,7.9798e-07,0.75,0.28,0
0.035754,0.0048521,0.032545,-0.00050989,0.0096105,-0.00053855,0,0,0.059629,-0.026313,0,-0.0028005,0,0,0,0.032554,-0.00051868,0.0096105,-0.93328,0.013882,0.029349,7.9634e-07,0.76,0.28,0
0.03635,0.0048786,0.032521,-0.00051897,0.0096006,-0.00051987,0,0,0.059593,-0.026311,0,-0.0027033,0,0,0,0.032529,-0.00052717,0.0096006,-0.90132,0.013868,0.029335,7.9478e-07,0.77,0.28,0
0.036946,0.0049035,0.032499,-0.00052715,0.0095914,-0.00050091,0,0,0.059559,-0.026308,0,-0.0026047,0,0,0,0.032506,-0.00053476,0.0095914,-0.86884,0.013854,0.02932,7.9329e-07,0.78,0.28,0
0.037542,0.0049268,0.032478,-0.00053455,0.0095829,-0.00048166,0,0,0.059526,-0.026305,0,-0.0025046,0,0,0,0.032485,-0.00054159,0.0095829,-0.83581,0.013842,0.029306,7.9188e-07,0.79,0.28,0
0.038137,0.0049488,0.032458,-0.00054128,0.0095749,-0.00046211,0,0,0.059495,-0.026302,0,-0.002403,0,0,0,0.032464,-0.00054776,0.0095749,-0.80221,0.01383,0.029293,7.9055e-07,0.8,0.28,0
0.038731,0.0049693,0.032439,-0.00054742,0.0095676,-0.00044224,0,0,0.059466,-0.026299,0,-0.0022996,0,0,0,0.032445,-0.00055336,0.0095676,-0.76802,0.01382,0.029281,7.8931e-07,0.81,0.28,0
0.039326,0.0049885,0.032422,-0.00055307,0.0095607,-0.00042203,0,0,0.05944,-0.026296,0,-0.0021946,0,0,0,0.032428,-0.00055848,0.0095607,-0.7332,0.01381,0.029269,7.8815e-07,0.82,0.28,0
0.03992,0.0050063,0.032406,-0.00055827,0.0095544,-0.00040147,0,0,0.059415,-0.026293,0,-0.0020877,0,0,0,0.032411,-0.00056317,0.0095544,-0.69772,0.013801,0.029258,7.8708e-07,0.83,0.28,0
0.040514,0.0050229,0.032392,-0.00056308,0.0095486,-0.00038054,0,0,0.059392,-0.02629,0,-0.0019788,0,0,0,0.032396,-0.00056749,0.0095486,-0.66155,0.013792,0.029248,7.8609e-07,0.84,0.28,0
0.041108,0.0050383,0.032378,-0.00056755,0.0095432,-0.00035923,0,0,0.059371,-0.026288,0,-0.001868,0,0,0,0.032382,-0.00057148,0.0095432,-0.62469,0.013785,0.029239,7.8518e-07,0.85,0.28,0
0.041702,0.0050524,0.032366,-0.0005717,0.0095383,-0.00033754,0,0,0.059352,-0.026286,0,-0.0017552,0,0,0,0.032369,-0.00057516,0.0095383,-0.58712,0.013777,0.029231,7.8435e-07,0.86,0.28,0
0.042295,0.0050654,0.032355,-0.00057554,0.0095338,-0.00031545,0,0,0.059334,-0.026284,0,-0.0016403,0,0,0,0.032358,-0.00057858,0.0095338,-0.54883,0.013771,0.029223,7.836e-07,0.87,0.28,0
0.042888,0.0050774,0.032345,-0.00057911,0.0095296,-0.00029298,0,0,0.059319,-0.026283,0,-0.0015235,0,0,0,0.032347,-0.00058173,0.0095296,-0.50983,0.013765,0.029216,7.8291e-07,0.88,0.28,0
0.043481,0.0050882,0.032335,-0.0005824,0.0095259,-0.00027012,0,0,0.059305,-0.026282,0,-0.0014046,0,0,0,0.032338,-0.00058463,0.0095259,-0.47015,0.01376,0.02921,7.823e-07,0.89,0.28,0
0.044074,0.005098,0.032327,-0.00058543,0.0095226,-0.00024689,0,0,0.059292,-0.026281,0,-0.0012838,0,0,0,0.032329,-0.00058729,0.0095226,-0.42979,0.013755,0.029205,7.8175e-07,0.9,0.28,0
0.044667,0.0051067,0.03232,-0.00058818,0.0095196,-0.00022331,0,0,0.059282,-0.02628,0,-0.0011612,0,0,0,0.032322,-0.00058971,0.0095196,-0.3888,0.013751,0.0292,7.8127e-07,0.91,0.28,0
0.04526,0.0051145,0.032314,-0.00059066,0.009517,-0.0001994,0,0,0.059272,-0.02628,0,-0.0010369,0,0,0,0.032315,-0.00059188,0.009517,-0.34722,0.013747,0.029196,7.8085e-07,0.92,0.28,0
0.045853,0.0051213,0.032308,-0.00059287,0.0095147,-0.00017519,0,0,0.059264,-0.02628,0,-0.00091099,0,0,0,0.032309,-0.00059382,0.0095147,-0.30509,0.013743,0.029192,7.8048e-07,0.93,0.28,0
0.046445,0.0051271,0.032304,-0.00059481,0.0095127,-0.0001507,0,0,0.059257,-0.026279,0,-0.00078364,0,0,0,0.032304,-0.00059551,0.0095127,-0.26247,0.013741,0.029189,7.8017e-07,0.94,0.28,0
0.047038,0.005132,0.0323,-0.00059645,0.009511,-0.00012597,0,0,0.059251,-0.026279,0,-0.00065503,0,0,0,0.0323,-0.00059694,0.009511,-0.21941,0.013738,0.029187,7.7991e-07,0.95,0.28,0
0.04763,0.005136,0.032297,-0.00059781,0.0095097,-0.00010103,0,0,0.059246,-0.026279,0,-0.00052535,0,0,0,0.032297,-0.00059813,0.0095097,-0.17598,0.013736,0.029185,7.797e-07,0.96,0.28,0
0.048223,0.0051391,0.032294,-0.00059887,0.0095086,-7.5921e-05,0,0,0.059243,-0.026279,0,-0.00039479,0,0,0,0.032294,-0.00059905,0.0095086,-0.13225,0.013735,0.029183,7.7953e-07,0.97,0.28,0
0.048815,0.0051413,0.032293,-0.00059963,0.0095079,-5.0686e-05,0,0,0.05924,-0.02628,0,-0.00026357,0,0,0,0.032293,-0.00059972,0.0095079,-0.088296,0.013734,0.029182,7.7942e-07,0.98,0.28,0
0.049408,0.0051426,0.032292,-0.00060009,0.0095074,-2.3257e-05,0,0,0.059239,-0.02628,0,-0.00012093,0,0,0,0.032292,-0.00060012,0.0095074,-0.040514,0.013733,0.029182,7.7935e-07,0.99,0.28,0
0.049704,0.005143,0.032291,-0.00060024,0.0095073,-8.4715e-06,0,0,0.059238,-0.02628,0,-4.4052e-05,0,0,0,0.032291,-0.00060025,0.0095073,-0.014758,0.013733,0.029181,7.7933e-07,1,0.28,0
0.00027308,9.6147e-05,0.036716,0.01534,0.015617,0.0036805,0,0,0.054858,-0.00071962,0,0.019139,0,0,0,0.037334,0.014722,0.015617,9.5028,0.022558,0.022179,5.5715e-07,0,0.29,0
0.00054858,0.00018946,0.036762,0.015003,0.015529,0.0036312,0,0,0.055204,-0.0013685,0,0.018882,0,0,0,0.037354,0.01441,0.015529,9.2353,0.022431,0.022407,5.7284e-07,0.01,0.29,0
0.0011041,0.00037021,0.036937,0.014441,0.015414,0.0034931,0,0,0.055962,-0.0025286,0,0.018164,0,0,0,0.03747,0.013908,0.015414,8.6328,0.022264,0.022848,6.0364e-07,0.02,0.29,0
0.0016678,0.0005388,0.037189,0.014062,0.015375,0.0032997,0,0,0.056716,-0.0034156,0,0.017159,0,0,0,0.037654,0.013597,0.015375,7.967,0.022209,0.023219,6.3024e-07,0.03,0.29,0
0.0022384,0.00069454,0.037421,0.01383,0.015375,0.0030725,0,0,0.057319,-0.004018,0,0.015977,0,0,0,0.037817,0.013434,0.015375,7.3009,0.022209,0.023473,6.4898e-07,0.04,0.29,0
0.0028142,0.00083711,0.037613,0.01377,0.015415,0.0028196,0,0,0.057715,-0.0042762,0,0.014662,0,0,0,0.037944,0.013439,0.015415,6.651,0.022266,0.023579,6.5748e-07,0.05,0.29,0
0.0033927,0.00096822,0.037728,0.013716,0.015433,0.0026235,0,0,0.0543,-0.0040458,0,0.012748,0,0,0,0.038013,0.013431,0.015433,6.158,0.022293,0.023647,6.6265e-07,0.06,0.29,0
0.0039002,0.0010801,0.037765,0.013222,0.015296,0.0025257,0,0,0.043679,-0.0036421,0,0.0097639,0,0,0,0.038026,0.012961,0.015296,5.815,0.022094,0.023988,6.8577e-07,0.07,0.29,0
0.0042663,0.0011668,0.037771,0.012236,0.015002,0.0024417,0,0,0.033215,-0.0038047,0,0.0071147,0,0,0,0.038006,0.012001,0.015002,5.4243,0.02167,0.024647,7.3018e-07,0.08,0.29,0
0.0045645,0.0012439,0.037743,0.011275,0.014705,0.0023052,0,0,0.029949,-0.0044596,0,0.0059934,0,0,0,0.037944,0.011073,0.014705,4.9515,0.021241,0.025254,7.6974e-07,0.09,0.29,0
0.0048653,0.0013195,0.037636,0.010575,0.014464,0.0021044,0,0,0.030125,-0.0050545,0,0.0054713,0,0,0,0.037801,0.010411,0.014464,4.4264,0.020892,0.025606,7.8991e-07,0.1,0.29,0
0.005167,0.00139,0.037485,0.0099713,0.014237,0.0018854,0,0,0.030223,-0.0055454,0,0.004902,0,0,0,0.037615,0.0098413,0.014237,3.9061,0.020565,0.025859,8.0206e-07,0.11,0.29,0
0.0054697,0.0014555,0.037356,0.0093695,0.014018,0.0016841,0,0,0.03034,-0.0060428,0,0.0043786,0,0,0,0.037458,0.0092674,0.014018,3.4352,0.020248,0.026142,8.1621e-07,0.12,0.29,0
0.0057738,0.0015162,0.03726,0.008783,0.013813,0.0014879,0,0,0.030482,-0.006539,0,0.0038685,0,0,0,0.037339,0.0087045,0.013813,2.9866,0.019952,0.026453,8.3231e-07,0.13,0.29,0
0.0060794,0.001572,0.037179,0.0082187,0.013619,0.0012964,0,0,0.030628,-0.0070209,0,0.0033705,0,0,0,0.037238,0.0081599,0.013619,2.5613,0.019672,0.02677,8.4861e-07,0.14,0.29,0
0.0063864,0.0016231,0.037101,0.0076758,0.013433,0.0011135,0,0,0.030768,-0.0074844,0,0.0028951,0,0,0,0.037144,0.007633,0.013433,2.1671,0.019403,0.027081,8.6427e-07,0.15,0.29,0
0.0066947,0.0016697,0.037021,0.0071525,0.013252,0.00094175,0,0,0.0309,-0.0079296,0,0.0024485,0,0,0,0.037052,0.0071221,0.013252,1.8067,0.019142,0.027385,8.7902e-07,0.16,0.29,0
0.0070044,0.0017121,0.036939,0.0066474,0.013076,0.00078157,0,0,0.031022,-0.008357,0,0.0020321,0,0,0,0.036959,0.0066267,0.013076,1.4793,0.018887,0.027678,8.9273e-07,0.17,0.29,0
0.0073152,0.0017504,0.036853,0.00616,0.012904,0.00063265,0,0,0.031133,-0.0087669,0,0.0016449,0,0,0,0.036866,0.0061465,0.012904,1.1823,0.018639,0.027961,9.0534e-07,0.18,0.29,0
0.007627,0.0017849,0.036762,0.0056896,0.012736,0.00049453,0,0,0.031235,-0.0091596,0,0.0012858,0,0,0,0.03677,0.0056813,0.012736,0.91324,0.018396,0.028231,9.1678e-07,0.19,0.29,0
0.0079398,0.0018159,0.036667,0.0052354,0.012571,0.00036681,0,0,0.031325,-0.0095359,0,0.00095372,0,0,0,0.036672,0.0052307,0.012571,0.66994,0.018158,0.02849,9.2703e-07,0.2,0.29,0
0.0082535,0.0018435,0.036568,0.004796,0.012409,0.00024911,0,0,0.031406,-0.009897,0,0.00064769,0,0,0,0.03657,0.0047937,0.012409,0.45041,0.017924,0.028736,9.3614e-07,0.21,0.29,0
0.008568,0.0018681,0.036464,0.0043697,0.01225,0.00014096,0,0,0.031478,-0.010245,0,0.00036651,0,0,0,0.036465,0.0043687,0.01225,0.25268,0.017695,0.028971,9.4415e-07,0.22,0.29,0
0.0088831,0.0018899,0.036356,0.0039545,0.012093,4.1767e-05,0,0,0.031542,-0.01058,0,0.00010859,0,0,0,0.036357,0.0039542,0.012093,0.074744,0.017468,0.029197,9.5118e-07,0.23,0.29,0
0.0091988,0.001909,0.036245,0.0035485,0.011938,-4.9269e-05,0,0,0.031599,-0.010906,0,-0.0001281,0,0,0,0.036246,0.0035482,0.011938,-0.085565,0.017244,0.029414,9.5731e-07,0.24,0.29,0
0.0095151,0.0019257,0.036131,0.0031498,0.011784,-0.00013309,0,0,0.031651,-0.011225,0,-0.00034604,0,0,0,0.036132,0.0031489,0.011784,-0.23053,0.017022,0.029625,9.6262e-07,0.25,0.29,0
0.0098318,0.0019402,0.036013,0.0027566,0.011631,-0.00021076,0,0,0.031697,-0.011537,0,-0.00054798,0,0,0,0.036015,0.0027549,0.011631,-0.36248,0.0168,0.029829,9.6719e-07,0.26,0.29,0
0.010149,0.0019525,0.035892,0.0023674,0.011478,-0.00028339,0,0,0.031738,-0.011844,0,-0.00073681,0,0,0,0.035895,0.0023647,0.011478,-0.48373,0.016579,0.030029,9.7103e-07,0.27,0.29,0
0.010467,0.0019629,0.035767,0.0019808,0.011324,-0.0003521,0,0,0.031776,-0.012147,0,-0.00091546,0,0,0,0.035771,0.0019769,0.011324,-0.59649,0.016357,0.030225,9.7417e-07,0.28,0.29,0
0.010785,0.0019714,0.035638,0.0015955,0.01117,-0.00041805,0,0,0.031808,-0.012447,0,-0.0010869,0,0,0,0.035643,0.0015901,0.01117,-0.70296,0.016134,0.030417,9.766e-07,0.29,0.29,0
0.011103,0.0019782,0.035503,0.0012098,0.011014,-0.00048254,0,0,0.031836,-0.012745,0,-0.0012546,0,0,0,0.03551,0.0012027,0.011014,-0.80547,0.015909,0.030605,9.783e-07,0.3,0.29,0
0.011421,0.0019834,0.035363,0.00082157,0.010855,-0.00054719,0,0,0.03186,-0.013044,0,-0.0014227,0,0,0,0.035372,0.00081256,0.010855,-0.90677,0.01568,0.030792,9.7929e-07,0.31,0.29,0
0.01174,0.0019869,0.035216,0.00042784,0.010693,-0.00061415,0,0,0.03188,-0.013345,0,-0.0015968,0,0,0,0.035227,0.00041663,0.010693,-1.0104,0.015446,0.030979,9.7958e-07,0.32,0.29,0
0.012059,0.001989,0.035062,2.4813e-05,0.010526,-0.00068636,0,0,0.031897,-0.013652,0,-0.0017845,0,0,0,0.035076,1.0959e-05,0.010526,-1.121,0.015204,0.031168,9.7926e-07,0.33,0.29,0
0.012378,0.0019896,0.034902,-0.00039241,0.010353,-0.00076741,0,0,0.031913,-0.013969,0,-0.0019953,0,0,0,0.034919,-0.00040955,0.010353,-1.2439,0.014954,0.031364,9.7846e-07,0.34,0.29,0
0.012697,0.0019887,0.034736,-0.00083019,0.010172,-0.00086075,0,0,0.031934,-0.014303,0,-0.002238,0,0,0,0.034757,-0.00085152,0.010172,-1.3841,0.014693,0.031575,9.7752e-07,0.35,0.29,0
0.013017,0.0019865,0.034575,-0.0012984,0.009983,-0.00096836,0,0,0.03197,-0.014666,0,-0.0025177,0,0,0,0.034602,-0.0013251,0.009983,-1.5433,0.01442,0.031818,9.7747e-07,0.36,0.29,0
0.013337,0.0019832,0.034445,-0.0018165,0.0097884,-0.0010906,0,0,0.032053,-0.015086,0,-0.0028355,0,0,0,0.034478,-0.0018497,0.0097884,-1.719,0.014139,0.03213,9.8085e-07,0.37,0.29,0
0.013658,0.001979,0.034382,-0.0024267,0.0095866,-0.0012302,0,0,0.032234,-0.015617,0,-0.0031985,0,0,0,0.034424,-0.0024682,0.0095866,-1.9099,0.013847,0.032583,9.9189e-07,0.38,0.29,0
0.013981,0.0019748,0.034386,-0.0031844,0.0093605,-0.0013737,0,0,0.032533,-0.016308,0,-0.0035715,0,0,0,0.034437,-0.003235,0.0093605,-2.0909,0.013521,0.033217,1.0114e-06,0.39,0.29,0
0.014308,0.0019728,0.034454,-0.003949,0.0091515,-0.0013546,0,0,0.032893,-0.017031,0,-0.003522,0,0,0,0.034504,-0.0039988,0.0091515,-2.0232,0.013219,0.033898,1.0344e-06,0.4,0.29,0
0.014639,0.0019839,0.034564,-0.0036365,0.0092783,-0.0009593,0,0,0.036712,-0.018025,0,-0.0023616,0,0,0,0.034598,-0.0036704,0.0092783,-1.3886,0.013402,0.033737,1.0236e-06,0.41,0.29,0
0.015043,0.0020259,0.034696,-0.00144,0.0099767,-0.00030246,0,0,0.047597,-0.02034,0,-0.00028638,0,0,0,0.034712,-0.0014568,0.0099767,-0.36849,0.014411,0.032072,9.6614e-07,0.42,0.29,0
0.015591,0.0021058,0.034869,0.00062259,0.010647,0.00023952,0,0,0.058796,-0.023593,0,0.0015521,0,0,0,0.034877,0.00061441,0.010647,0.44832,0.01538,0.030533,9.3377e-07,0.43,0.29,0
0.016218,0.0022128,0.034949,0.00077783,0.010718,0.00047346,0,0,0.063001,-0.025845,0,0.002462,0,0,0,0.034957,0.0007706,0.010718,0.7934,0.015482,0.030457,9.4662e-07,0.44,0.29,0
0.016851,0.0023342,0.034834,0.00026004,0.010528,0.00051097,0,0,0.063195,-0.026697,0,0.002657,0,0,0,0.034843,0.00025168,0.010528,0.84877,0.015208,0.030768,9.5298e-07,0.45,0.29,0
0.017482,0.0024629,0.034618,5.5092e-05,0.010402,0.00047775,0,0,0.062962,-0.026902,0,0.0024843,0,0,0,0.034626,4.7609e-05,0.010402,0.79355,0.015025,0.030738,9.4121e-07,0.46,0.29,0
0.01811,0.0025943,0.034395,-1.6088e-06,0.010318,0.00040089,0,0,0.062601,-0.026831,0,0.0020846,0,0,0,0.034401,-7.081e-06,0.010318,0.66866,0.014904,0.030582,9.2451e-07,0.47,0.29,0
0.018734,0.002725,0.034197,1.1052e-05,0.010262,0.00029628,0,0,0.06223,-0.026653,0,0.0015406,0,0,0,0.0342,7.7964e-06,0.010262,0.49693,0.014823,0.030392,9.0795e-07,0.48,0.29,0
0.019355,0.0028526,0.034027,4.8639e-05,0.010223,0.00017743,0,0,0.061891,-0.026452,0,0.00092262,0,0,0,0.034028,4.7135e-05,0.010223,0.29924,0.014766,0.030207,8.9319e-07,0.49,0.29,0
0.019972,0.0029756,0.033884,8.8073e-05,0.010192,5.4472e-05,0,0,0.0616,-0.026269,0,0.00028325,0,0,0,0.033884,8.7513e-05,0.010192,0.092232,0.014721,0.030047,8.8074e-07,0.5,0.29,0
0.020587,0.003093,0.033764,0.00011828,0.010165,-6.5437e-05,0,0,0.061359,-0.026121,0,-0.00034027,0,0,0,0.033765,0.00011778,0.010165,-0.11161,0.014682,0.029917,8.7059e-07,0.51,0.29,0
0.021199,0.0032044,0.033665,0.00013481,0.01014,-0.00017766,0,0,0.061165,-0.026013,0,-0.00092385,0,0,0,0.033666,0.00013358,0.01014,-0.30377,0.014646,0.029816,8.6252e-07,0.52,0.29,0
0.02181,0.0033096,0.033582,0.00013669,0.010115,-0.00027938,0,0,0.061012,-0.025945,0,-0.0014528,0,0,0,0.033584,0.00013413,0.010115,-0.47874,0.014611,0.029743,8.5621e-07,0.53,0.29,0
0.02242,0.0034086,0.033511,0.00012486,0.010091,-0.000369,0,0,0.060893,-0.025912,0,-0.0019188,0,0,0,0.033515,0.00012061,0.010091,-0.63331,0.014576,0.029693,8.5134e-07,0.54,0.29,0
0.023028,0.0035016,0.033451,0.00010134,0.010066,-0.00044587,0,0,0.060802,-0.025907,0,-0.0023185,0,0,0,0.033457,9.5258e-05,0.010066,-0.76597,0.014539,0.029661,8.4761e-07,0.55,0.29,0
0.023636,0.0035889,0.033399,6.8638e-05,0.01004,-0.00050999,0,0,0.060732,-0.025926,0,-0.0026519,0,0,0,0.033407,6.0748e-05,0.01004,-0.87654,0.014503,0.029644,8.4471e-07,0.56,0.29,0
0.024243,0.0036708,0.033352,2.9316e-05,0.010014,-0.0005619,0,0,0.060678,-0.025961,0,-0.0029219,0,0,0,0.033362,1.978e-05,0.010014,-0.96591,0.014465,0.029637,8.4241e-07,0.57,0.29,0
0.024849,0.0037478,0.033309,-1.4248e-05,0.0099885,-0.00060253,0,0,0.060634,-0.026007,0,-0.0031332,0,0,0,0.03332,-2.5185e-05,0.0099885,-1.0357,0.014428,0.029636,8.405e-07,0.58,0.29,0
0.025455,0.0038201,0.033269,-6.0002e-05,0.0099627,-0.00063301,0,0,0.060597,-0.026059,0,-0.0032916,0,0,0,0.033281,-7.2056e-05,0.0099627,-1.0878,0.014391,0.029639,8.3881e-07,0.59,0.29,0
0.026061,0.0038882,0.033231,-0.00010627,0.0099373,-0.00065457,0,0,0.060562,-0.026113,0,-0.0034038,0,0,0,0.033243,-0.00011915,0.0099373,-1.1246,0.014354,0.029643,8.3722e-07,0.6,0.29,0
0.026667,0.0039523,0.033193,-0.00015176,0.0099123,-0.00066848,0,0,0.060529,-0.026167,0,-0.0034761,0,0,0,0.033206,-0.00016518,0.0099123,-1.1482,0.014318,0.029646,8.3564e-07,0.61,0.29,0
0.027272,0.0040128,0.033155,-0.0001955,0.009888,-0.00067594,0,0,0.060495,-0.026217,0,-0.0035149,0,0,0,0.033169,-0.00020922,0.009888,-1.1608,0.014283,0.029649,8.3402e-07,0.62,0.29,0
0.027876,0.0040699,0.033118,-0.00023683,0.0098644,-0.00067804,0,0,0.06046,-0.026263,0,-0.0035258,0,0,0,0.033132,-0.00025063,0.0098644,-1.1642,0.014249,0.029649,8.3232e-07,0.63,0.29,0
0.028481,0.004124,0.033081,-0.00027532,0.0098417,-0.00067578,0,0,0.060422,-0.026304,0,-0.003514,0,0,0,0.033095,-0.00028903,0.0098417,-1.1603,0.014216,0.029646,8.3054e-07,0.64,0.29,0
0.029085,0.0041751,0.033044,-0.00031076,0.00982,-0.00067001,0,0,0.060383,-0.02634,0,-0.003484,0,0,0,0.033057,-0.00032424,0.00982,-1.1505,0.014184,0.029641,8.2866e-07,0.65,0.29,0
0.029689,0.0042236,0.033007,-0.00034307,0.0097992,-0.00066147,0,0,0.06034,-0.02637,0,-0.0034396,0,0,0,0.03302,-0.00035621,0.0097992,-1.136,0.014154,0.029634,8.2669e-07,0.66,0.29,0
0.030292,0.0042695,0.03297,-0.00037228,0.0097794,-0.00065077,0,0,0.060296,-0.026394,0,-0.003384,0,0,0,0.032983,-0.00038501,0.0097794,-1.1179,0.014126,0.029624,8.2466e-07,0.67,0.29,0
0.030894,0.004313,0.032934,-0.00039854,0.0097607,-0.00063842,0,0,0.060251,-0.026414,0,-0.0033198,0,0,0,0.032946,-0.00041079,0.0097607,-1.097,0.014099,0.029612,8.2258e-07,0.68,0.29,0
0.031497,0.0043543,0.032898,-0.00042201,0.0097429,-0.00062482,0,0,0.060204,-0.026429,0,-0.0032491,0,0,0,0.03291,-0.00043375,0.0097429,-1.0741,0.014073,0.029598,8.2047e-07,0.69,0.29,0
0.032099,0.0043935,0.032863,-0.00044292,0.0097261,-0.00061028,0,0,0.060157,-0.02644,0,-0.0031735,0,0,0,0.032875,-0.00045412,0.0097261,-1.0495,0.014049,0.029583,8.1835e-07,0.7,0.29,0
0.0327,0.0044306,0.032829,-0.0004615,0.0097103,-0.00059504,0,0,0.060109,-0.026447,0,-0.0030942,0,0,0,0.03284,-0.00047215,0.0097103,-1.0238,0.014026,0.029567,8.1624e-07,0.71,0.29,0
0.033301,0.0044657,0.032796,-0.00047799,0.0096955,-0.00057927,0,0,0.060062,-0.026451,0,-0.0030122,0,0,0,0.032806,-0.00048809,0.0096955,-0.99719,0.014005,0.029549,8.1416e-07,0.72,0.29,0
0.033901,0.004499,0.032764,-0.00049264,0.0096816,-0.00056311,0,0,0.060016,-0.026453,0,-0.0029281,0,0,0,0.032774,-0.00050219,0.0096816,-0.96988,0.013984,0.029532,8.1212e-07,0.73,0.29,0
0.034501,0.0045305,0.032734,-0.00050566,0.0096685,-0.00054662,0,0,0.05997,-0.026453,0,-0.0028424,0,0,0,0.032743,-0.00051466,0.0096685,-0.94199,0.013966,0.029514,8.1014e-07,0.74,0.29,0
0.035101,0.0045602,0.032705,-0.00051727,0.0096563,-0.00052985,0,0,0.059926,-0.026451,0,-0.0027552,0,0,0,0.032713,-0.00052574,0.0096563,-0.9136,0.013948,0.029497,8.0823e-07,0.75,0.29,0
0.0357,0.0045883,0.032677,-0.00052767,0.0096448,-0.00051284,0,0,0.059884,-0.026448,0,-0.0026668,0,0,0,0.032685,-0.0005356,0.0096448,-0.88474,0.013931,0.02948,8.0639e-07,0.76,0.29,0
0.036298,0.0046148,0.032651,-0.00053702,0.0096342,-0.00049557,0,0,0.059843,-0.026445,0,-0.002577,0,0,0,0.032658,-0.00054443,0.0096342,-0.8554,0.013916,0.029463,8.0465e-07,0.77,0.29,0
0.036896,0.0046397,0.032626,-0.00054547,0.0096242,-0.00047804,0,0,0.059805,-0.026441,0,-0.0024858,0,0,0,0.032633,-0.00055238,0.0096242,-0.82555,0.013902,0.029447,8.0299e-07,0.78,0.29,0
0.037494,0.0046631,0.032603,-0.00055317,0.0096149,-0.00046022,0,0,0.059769,-0.026437,0,-0.0023931,0,0,0,0.032609,-0.00055957,0.0096149,-0.79517,0.013888,0.029432,8.0143e-07,0.79,0.29,0
0.038092,0.0046851,0.032581,-0.00056022,0.0096063,-0.00044209,0,0,0.059735,-0.026433,0,-0.0022989,0,0,0,0.032587,-0.00056613,0.0096063,-0.76419,0.013876,0.029417,7.9997e-07,0.8,0.29,0
0.038689,0.0047056,0.032561,-0.00056671,0.0095983,-0.00042362,0,0,0.059703,-0.026429,0,-0.0022028,0,0,0,0.032566,-0.00057213,0.0095983,-0.73258,0.013864,0.029404,7.986e-07,0.81,0.29,0
0.039286,0.0047248,0.032542,-0.00057272,0.0095909,-0.00040479,0,0,0.059674,-0.026425,0,-0.0021049,0,0,0,0.032547,-0.00057767,0.0095909,-0.70029,0.013853,0.029391,7.9734e-07,0.82,0.29,0
0.039883,0.0047427,0.032525,-0.00057831,0.009584,-0.00038556,0,0,0.059646,-0.026422,0,-0.0020049,0,0,0,0.032529,-0.00058281,0.009584,-0.66728,0.013844,0.029379,7.9617e-07,0.83,0.29,0
0.040479,0.0047593,0.032509,-0.00058352,0.0095776,-0.00036592,0,0,0.059622,-0.026419,0,-0.0019028,0,0,0,0.032513,-0.00058758,0.0095776,-0.6335,0.013834,0.029368,7.9509e-07,0.84,0.29,0
0.041075,0.0047747,0.032494,-0.0005884,0.0095718,-0.00034586,0,0,0.059599,-0.026416,0,-0.0017985,0,0,0,0.032498,-0.00059203,0.0095718,-0.59895,0.013826,0.029359,7.941e-07,0.85,0.29,0
0.041671,0.0047889,0.032481,-0.00059297,0.0095664,-0.00032535,0,0,0.059578,-0.026414,0,-0.0016918,0,0,0,0.032484,-0.00059618,0.0095664,-0.56359,0.013818,0.02935,7.932e-07,0.86,0.29,0
0.042267,0.004802,0.032469,-0.00059723,0.0095615,-0.0003044,0,0,0.059559,-0.026413,0,-0.0015829,0,0,0,0.032472,-0.00060005,0.0095615,-0.52744,0.013811,0.029342,7.9239e-07,0.87,0.29,0
0.042862,0.0048139,0.032458,-0.00060122,0.009557,-0.00028302,0,0,0.059542,-0.026411,0,-0.0014717,0,0,0,0.03246,-0.00060365,0.009557,-0.49049,0.013805,0.029335,7.9165e-07,0.88,0.29,0
0.043457,0.0048247,0.032448,-0.00060491,0.009553,-0.0002612,0,0,0.059527,-0.02641,0,-0.0013582,0,0,0,0.03245,-0.00060699,0.009553,-0.45276,0.013799,0.029328,7.9099e-07,0.89,0.29,0
0.044053,0.0048345,0.032439,-0.00060833,0.0095493,-0.00023896,0,0,0.059514,-0.02641,0,-0.0012426,0,0,0,0.032441,-0.00061006,0.0095493,-0.41429,0.013793,0.029323,7.904e-07,0.9,0.29,0
0.044648,0.0048432,0.032432,-0.00061145,0.009546,-0.00021632,0,0,0.059502,-0.026409,0,-0.0011249,0,0,0,0.032433,-0.00061287,0.009546,-0.37509,0.013789,0.029318,7.8988e-07,0.91,0.29,0
0.045243,0.004851,0.032425,-0.00061427,0.0095431,-0.0001933,0,0,0.059492,-0.026409,0,-0.0010052,0,0,0,0.032426,-0.00061541,0.0095431,-0.33523,0.013785,0.029313,7.8943e-07,0.92,0.29,0
0.045837,0.0048578,0.032419,-0.0006168,0.0095406,-0.00016994,0,0,0.059483,-0.026409,0,-0.00088371,0,0,0,0.03242,-0.00061768,0.0095406,-0.29475,0.013781,0.02931,7.8904e-07,0.93,0.29,0
0.046432,0.0048636,0.032414,-0.00061901,0.0095384,-0.00014627,0,0,0.059476,-0.026409,0,-0.00076062,0,0,0,0.032414,-0.00061966,0.0095384,-0.25372,0.013778,0.029307,7.8871e-07,0.94,0.29,0
0.047027,0.0048685,0.03241,-0.00062089,0.0095366,-0.00012233,0,0,0.05947,-0.026409,0,-0.00063611,0,0,0,0.03241,-0.00062136,0.0095366,-0.2122,0.013775,0.029304,7.8843e-07,0.95,0.29,0
0.047622,0.0048725,0.032406,-0.00062245,0.0095351,-9.815e-05,0,0,0.059465,-0.02641,0,-0.00051038,0,0,0,0.032406,-0.00062275,0.0095351,-0.17027,0.013773,0.029302,7.882e-07,0.96,0.29,0
0.048216,0.0048756,0.032404,-0.00062367,0.009534,-7.3782e-05,0,0,0.059461,-0.02641,0,-0.00038366,0,0,0,0.032404,-0.00062384,0.009534,-0.128,0.013771,0.0293,7.8803e-07,0.97,0.29,0
0.048811,0.0048778,0.032402,-0.00062455,0.0095331,-4.9269e-05,0,0,0.059458,-0.02641,0,-0.0002562,0,0,0,0.032402,-0.00062463,0.0095331,-0.085479,0.01377,0.029299,7.8791e-07,0.98,0.29,0
0.049405,0.0048792,0.032401,-0.00062507,0.0095327,-2.2552e-05,0,0,0.059457,-0.02641,0,-0.00011727,0,0,0,0.032401,-0.0006251,0.0095327,-0.039127,0.013769,0.029299,7.8784e-07,0.99,0.29,0
0.049703,0.0048796,0.0324,-0.00062525,0.0095325,-8.1213e-06,0,0,0.059456,-0.02641,0,-4.2231e-05,0,0,0,0.0324,-0.00062526,0.0095325,-0.014091,0.013769,0.029298,7.8781e-07,1,0.29,0
0.00027465,8.9124e-05,0.036928,0.015452,0.015714,0.0034119,0,0,0.055157,-0.00068169,0,0.017742,0,0,0,0.037459,0.014921,0.015714,8.8147,0.022698,0.022153,5.5583e-07,0,0.3,0
0.00055157,0.00017612,0.036966,0.015131,0.015629,0.0033702,0,0,0.055475,-0.0012943,0,0.017525,0,0,0,0.037476,0.014621,0.015629,8.583,0.022575,0.02237,5.7089e-07,0.01,0.3,0
0.0011095,0.00034562,0.037113,0.014598,0.015513,0.0032536,0,0,0.056159,-0.0023792,0,0.016919,0,0,0,0.037576,0.014135,0.015513,8.0654,0.022408,0.022783,5.9996e-07,0.02,0.3,0
0.0016747,0.00050579,0.03731,0.014245,0.015466,0.0030891,0,0,0.056794,-0.0031763,0,0.016064,0,0,0,0.037718,0.013837,0.015466,7.5003,0.022341,0.02311,6.2333e-07,0.03,0.3,0
0.0022454,0.00065613,0.037454,0.014039,0.015448,0.0028985,0,0,0.057215,-0.0036634,0,0.015072,0,0,0,0.037808,0.013684,0.015448,6.9532,0.022313,0.023293,6.3655e-07,0.04,0.3,0
0.002819,0.00079694,0.037525,0.013993,0.015455,0.0027016,0,0,0.057381,-0.0038023,0,0.014048,0,0,0,0.037832,0.013686,0.015455,6.4648,0.022324,0.023312,6.3805e-07,0.05,0.3,0
0.003393,0.00093055,0.037548,0.013892,0.015432,0.0025476,0,0,0.05384,-0.0036034,0,0.012435,0,0,0,0.03782,0.013621,0.015432,6.0803,0.022291,0.023348,6.4032e-07,0.06,0.3,0
0.0038959,0.0010457,0.037558,0.013319,0.015263,0.0024902,0,0,0.043299,-0.0033844,0,0.0096843,0,0,0,0.037811,0.013065,0.015263,5.8112,0.022046,0.023729,6.6594e-07,0.07,0.3,0
0.004259,0.0011306,0.037534,0.012354,0.014966,0.0024837,0,0,0.032912,-0.0035955,0,0.0072437,0,0,0,0.037777,0.012111,0.014966,5.5852,0.021618,0.024368,7.0839e-07,0.08,0.3,0
0.0045541,0.001201,0.037497,0.011471,0.01469,0.0024006,0,0,0.029648,-0.0041852,0,0.0062417,0,0,0,0.037717,0.01125,0.01469,5.2326,0.021219,0.024927,7.445e-07,0.09,0.3,0
0.0048519,0.0012701,0.037479,0.010782,0.014478,0.0022126,0,0,0.029901,-0.0048056,0,0.0057528,0,0,0,0.037663,0.010598,0.014478,4.7125,0.020913,0.02535,7.7083e-07,0.1,0.3,0
0.0051521,0.0013354,0.037442,0.010165,0.014282,0.0019867,0,0,0.030108,-0.0053521,0,0.0051655,0,0,0,0.037587,0.01002,0.014282,4.1497,0.02063,0.025704,7.9177e-07,0.11,0.3,0
0.0054541,0.0013959,0.037373,0.0095668,0.014082,0.0017672,0,0,0.030279,-0.0058698,0,0.0045948,0,0,0,0.037486,0.0094537,0.014082,3.6267,0.020341,0.02603,8.0994e-07,0.12,0.3,0
0.0057577,0.0014516,0.0373,0.0089784,0.013884,0.0015621,0,0,0.030442,-0.0063769,0,0.0040614,0,0,0,0.037387,0.0088915,0.013884,3.1515,0.020054,0.026358,8.277e-07,0.13,0.3,0
0.0060629,0.0015025,0.037229,0.0084055,0.01369,0.0013694,0,0,0.030601,-0.0068705,0,0.0035605,0,0,0,0.037295,0.0083397,0.01369,2.7176,0.019775,0.026686,8.4514e-07,0.14,0.3,0
0.0063697,0.001549,0.037157,0.007851,0.013503,0.0011889,0,0,0.030751,-0.0073469,0,0.0030911,0,0,0,0.037206,0.0078021,0.013503,2.3224,0.019504,0.02701,8.6182e-07,0.15,0.3,0
0.006678,0.0015911,0.037082,0.0073156,0.013319,0.0010208,0,0,0.030891,-0.0078046,0,0.002654,0,0,0,0.037117,0.00728,0.013319,1.9644,0.019239,0.027323,8.7745e-07,0.16,0.3,0
0.0069875,0.0016291,0.037001,0.006799,0.01314,0.00086485,0,0,0.03102,-0.0082434,0,0.0022486,0,0,0,0.037027,0.0067737,0.01314,1.6412,0.01898,0.027626,8.9188e-07,0.17,0.3,0
0.0072983,0.0016632,0.036916,0.0063006,0.012965,0.00072065,0,0,0.031136,-0.0086636,0,0.0018737,0,0,0,0.036933,0.0062832,0.012965,1.3496,0.018727,0.027916,9.0505e-07,0.18,0.3,0
0.0076103,0.0016938,0.036825,0.0058198,0.012793,0.00058747,0,0,0.031241,-0.0090658,0,0.0015274,0,0,0,0.036837,0.0058082,0.012793,1.0867,0.018479,0.028193,9.1694e-07,0.19,0.3,0
0.0079232,0.0017209,0.036729,0.0053555,0.012625,0.00046467,0,0,0.031335,-0.0094508,0,0.0012081,0,0,0,0.036736,0.0053482,0.012625,0.84975,0.018237,0.028457,9.2756e-07,0.2,0.3,0
0.008237,0.0017449,0.036628,0.0049065,0.01246,0.00035161,0,0,0.031418,-0.0098201,0,0.00091418,0,0,0,0.036632,0.0049022,0.01246,0.63617,0.017998,0.028708,9.3696e-07,0.21,0.3,0
0.0085515,0.001766,0.036523,0.0044711,0.012298,0.00024768,0,0,0.031492,-0.010175,0,0.00064398,0,0,0,0.036525,0.0044688,0.012298,0.44374,0.017764,0.028947,9.4522e-07,0.22,0.3,0
0.0088668,0.0017844,0.036414,0.0040475,0.012138,0.00015225,0,0,0.031558,-0.010518,0,0.00039585,0,0,0,0.036415,0.0040465,0.012138,0.27039,0.017533,0.029177,9.5243e-07,0.23,0.3,0
0.0091827,0.0018003,0.0363,0.0036339,0.01198,6.4612e-05,0,0,0.031616,-0.01085,0,0.00016799,0,0,0,0.036301,0.0036335,0.01198,0.11408,0.017305,0.029397,9.5868e-07,0.24,0.3,0
0.0094991,0.0018138,0.036183,0.0032284,0.011824,-1.5982e-05,0,0,0.031668,-0.011174,0,-4.1552e-05,0,0,0,0.036184,0.0032281,0.011824,-0.027133,0.017078,0.029609,9.6405e-07,0.25,0.3,0
0.009816,0.0018251,0.036063,0.0028294,0.011668,-9.0322e-05,0,0,0.031714,-0.01149,0,-0.00023484,0,0,0,0.036064,0.0028289,0.011668,-0.15515,0.016853,0.029815,9.686e-07,0.26,0.3,0
0.010133,0.0018343,0.035939,0.0024354,0.011512,-0.00015923,0,0,0.031754,-0.0118,0,-0.00041399,0,0,0,0.03594,0.0024344,0.011512,-0.27179,0.016629,0.030015,9.7234e-07,0.27,0.3,0
0.010451,0.0018416,0.03581,0.002045,0.011356,-0.00022355,0,0,0.031789,-0.012105,0,-0.00058123,0,0,0,0.035811,0.0020433,0.011356,-0.37887,0.016404,0.030208,9.7527e-07,0.28,0.3,0
0.010769,0.0018472,0.035675,0.0016569,0.0112,-0.00028422,0,0,0.031818,-0.012406,0,-0.00073897,0,0,0,0.035678,0.0016542,0.0112,-0.47823,0.016177,0.030397,9.7736e-07,0.29,0.3,0
0.011087,0.001851,0.035534,0.0012695,0.011041,-0.00034233,0,0,0.031841,-0.012703,0,-0.00089007,0,0,0,0.035538,0.0012658,0.011041,-0.57195,0.015948,0.03058,9.7853e-07,0.3,0.3,0
0.011406,0.0018532,0.035384,0.00088111,0.01088,-0.00039934,0,0,0.031856,-0.012998,0,-0.0010383,0,0,0,0.035389,0.00087611,0.01088,-0.6626,0.015715,0.030757,9.7871e-07,0.31,0.3,0
0.011725,0.0018538,0.035224,0.0004894,0.010714,-0.00045722,0,0,0.031863,-0.013292,0,-0.0011888,0,0,0,0.035231,0.00048295,0.010714,-0.75354,0.015476,0.030929,9.7779e-07,0.32,0.3,0
0.012043,0.0018529,0.035051,9.1392e-05,0.010543,-0.0005187,0,0,0.03186,-0.013587,0,-0.0013486,0,0,0,0.035059,8.3191e-05,0.010543,-0.84927,0.015228,0.031095,9.7563e-07,0.33,0.3,0
0.012362,0.0018504,0.034861,-0.00031711,0.010363,-0.00058744,0,0,0.031847,-0.013884,0,-0.0015273,0,0,0,0.034871,-0.00032752,0.010363,-0.95563,0.014969,0.031256,9.7212e-07,0.34,0.3,0
0.01268,0.0018464,0.034653,-0.00074261,0.010173,-0.00066833,0,0,0.031824,-0.01419,0,-0.0017377,0,0,0,0.034666,-0.00075597,0.010173,-1.0802,0.014694,0.031417,9.6724e-07,0.35,0.3,0
0.012998,0.0018407,0.034426,-0.0011967,0.0099687,-0.00076838,0,0,0.031794,-0.014515,0,-0.0019978,0,0,0,0.034443,-0.0012142,0.0099687,-1.2333,0.014399,0.031588,9.613e-07,0.36,0.3,0
0.013316,0.0018334,0.034183,-0.0017016,0.0097444,-0.00089879,0,0,0.03177,-0.01488,0,-0.0023369,0,0,0,0.034206,-0.0017252,0.0097444,-1.4309,0.014075,0.031789,9.5508e-07,0.37,0.3,0
0.013634,0.0018243,0.033925,-0.0022947,0.0094891,-0.001073,0,0,0.031767,-0.015319,0,-0.0027899,0,0,0,0.033958,-0.0023278,0.0094891,-1.6906,0.013706,0.032055,9.4958e-07,0.38,0.3,0
0.013951,0.0018137,0.033675,-0.003013,0.0091985,-0.0012751,0,0,0.031819,-0.015875,0,-0.0033153,0,0,0,0.03372,-0.0030585,0.0091985,-1.9821,0.013287,0.032437,9.4698e-07,0.39,0.3,0
0.01427,0.0018042,0.033559,-0.0039297,0.0088889,-0.0013792,0,0,0.032072,-0.016664,0,-0.0035859,0,0,0,0.033611,-0.0039812,0.0088889,-2.103,0.01284,0.033092,9.5724e-07,0.4,0.3,0
0.014593,0.0018032,0.033616,-0.0040836,0.0088596,-0.0011562,0,0,0.035933,-0.0181,0,-0.0030117,0,0,0,0.033657,-0.0041246,0.0088596,-1.7168,0.012797,0.033271,9.526e-07,0.41,0.3,0
0.014989,0.0018216,0.033752,-0.002125,0.0094882,-0.00056626,0,0,0.04665,-0.020665,0,-0.0013738,0,0,0,0.033773,-0.0021459,0.0094882,-0.80289,0.013705,0.031795,9.0447e-07,0.42,0.3,0
0.015526,0.0018708,0.033982,0.00018395,0.01025,7.9764e-05,0,0,0.057561,-0.023624,0,0.00078005,0,0,0,0.03399,0.0001759,0.01025,0.18138,0.014805,0.030096,8.7434e-07,0.43,0.3,0
0.01614,0.0019561,0.034202,0.00062454,0.010448,0.0004869,0,0,0.061761,-0.025541,0,0.0025319,0,0,0,0.03421,0.0006161,0.010448,0.82472,0.015091,0.029916,8.9158e-07,0.44,0.3,0
0.016761,0.0020689,0.034263,0.00023595,0.01035,0.00063777,0,0,0.062175,-0.026296,0,0.0033164,0,0,0,0.034275,0.00022377,0.01035,1.0736,0.01495,0.030286,9.0814e-07,0.45,0.3,0
0.017383,0.0021956,0.034213,0.00010174,0.010294,0.00063402,0,0,0.062189,-0.026501,0,0.0032969,0,0,0,0.034225,8.9727e-05,0.010294,1.0655,0.01487,0.030348,9.0783e-07,0.46,0.3,0
0.018005,0.0023276,0.034128,9.0444e-05,0.010266,0.00055231,0,0,0.062043,-0.026456,0,0.002872,0,0,0,0.034138,8.1136e-05,0.010266,0.93002,0.014828,0.030277,9.0099e-07,0.47,0.3,0
0.018624,0.0024599,0.034036,0.00012798,0.010249,0.00043257,0,0,0.061845,-0.026315,0,0.0022494,0,0,0,0.034042,0.00012205,0.010249,0.73105,0.014804,0.03016,8.9216e-07,0.48,0.3,0
0.019242,0.0025894,0.033947,0.00017563,0.010237,0.00029579,0,0,0.061647,-0.026159,0,0.0015381,0,0,0,0.03395,0.00017262,0.010237,0.5018,0.014787,0.030038,8.8349e-07,0.49,0.3,0
0.019857,0.002714,0.033867,0.00021494,0.010225,0.00015566,0,0,0.06147,-0.026025,0,0.00080942,0,0,0,0.033868,0.00021384,0.010225,0.26494,0.014769,0.029932,8.7589e-07,0.5,0.3,0
0.020471,0.0028327,0.033796,0.00023894,0.01021,2.0574e-05,0,0,0.061322,-0.025926,0,0.00010698,0,0,0,0.033796,0.00023861,0.01021,0.035031,0.014748,0.029848,8.6962e-07,0.51,0.3,0
0.021084,0.002945,0.033734,0.00024559,0.010194,-0.00010456,0,0,0.061204,-0.025865,0,-0.00054372,0,0,0,0.033734,0.000245,0.010194,-0.17898,0.014724,0.029788,8.6467e-07,0.52,0.3,0
0.021695,0.0030506,0.03368,0.00023534,0.010174,-0.00021695,0,0,0.061113,-0.025842,0,-0.0011282,0,0,0,0.033681,0.00023373,0.010174,-0.37172,0.014696,0.02975,8.6088e-07,0.53,0.3,0
0.022306,0.0031498,0.033632,0.00021017,0.010153,-0.00031507,0,0,0.061046,-0.02585,0,-0.0016383,0,0,0,0.033635,0.00020705,0.010153,-0.54012,0.014665,0.02973,8.5807e-07,0.54,0.3,0
0.022916,0.0032426,0.033589,0.00017299,0.010128,-0.00039833,0,0,0.060996,-0.025884,0,-0.0020713,0,0,0,0.033593,0.00016813,0.010128,-0.68292,0.01463,0.029724,8.5599e-07,0.55,0.3,0
0.023526,0.0033296,0.033549,0.00012702,0.010103,-0.00046697,0,0,0.06096,-0.025937,0,-0.0024282,0,0,0,0.033556,0.00012042,0.010103,-0.80039,0.014593,0.029729,8.5442e-07,0.56,0.3,0
0.024135,0.003411,0.033512,7.5339e-05,0.010076,-0.00052182,0,0,0.060932,-0.026002,0,-0.0027135,0,0,0,0.03352,6.7141e-05,0.010076,-0.89398,0.014554,0.029739,8.5315e-07,0.57,0.3,0
0.024745,0.0034874,0.033475,2.064e-05,0.010049,-0.00056415,0,0,0.060909,-0.026073,0,-0.0029336,0,0,0,0.033485,1.1088e-05,0.010049,-0.96593,0.014515,0.029753,8.5201e-07,0.58,0.3,0
0.025353,0.0035591,0.033439,-3.4882e-05,0.010021,-0.00059542,0,0,0.060886,-0.026146,0,-0.0030962,0,0,0,0.03345,-4.5502e-05,0.010021,-1.0189,0.014475,0.029767,8.5087e-07,0.59,0.3,0
0.025962,0.0036265,0.033402,-8.9529e-05,0.0099938,-0.00061717,0,0,0.060862,-0.026217,0,-0.0032093,0,0,0,0.033414,-0.00010093,0.0099938,-1.0555,0.014436,0.029779,8.4964e-07,0.6,0.3,0
0.026571,0.00369,0.033365,-0.00014205,0.0099669,-0.0006309,0,0,0.060835,-0.026283,0,-0.0032807,0,0,0,0.033377,-0.00015396,0.0099669,-1.0785,0.014397,0.029789,8.4827e-07,0.61,0.3,0
0.027179,0.00375,0.033327,-0.00019161,0.0099406,-0.000638,0,0,0.060804,-0.026344,0,-0.0033176,0,0,0,0.033339,-0.00020377,0.0099406,-1.0902,0.014359,0.029795,8.4672e-07,0.62,0.3,0
0.027787,0.0038066,0.033288,-0.00023765,0.0099151,-0.00063972,0,0,0.060769,-0.026397,0,-0.0033265,0,0,0,0.0333,-0.00024988,0.0099151,-1.0929,0.014322,0.029798,8.45e-07,0.63,0.3,0
0.028394,0.0038602,0.033248,-0.0002799,0.0098905,-0.00063716,0,0,0.06073,-0.026443,0,-0.0033132,0,0,0,0.03326,-0.00029203,0.0098905,-1.0885,0.014286,0.029796,8.431e-07,0.64,0.3,0
0.029001,0.003911,0.033208,-0.00031828,0.0098669,-0.00063124,0,0,0.060687,-0.026482,0,-0.0032825,0,0,0,0.03322,-0.00033019,0.0098669,-1.0785,0.014252,0.029791,8.4105e-07,0.65,0.3,0
0.029608,0.0039591,0.033168,-0.00035286,0.0098445,-0.00062275,0,0,0.060641,-0.026513,0,-0.0032383,0,0,0,0.033179,-0.00036446,0.0098445,-1.0641,0.01422,0.029782,8.3888e-07,0.66,0.3,0
0.030214,0.0040048,0.033128,-0.0003838,0.0098231,-0.00061232,0,0,0.060591,-0.026538,0,-0.0031841,0,0,0,0.033139,-0.00039501,0.0098231,-1.0466,0.014189,0.02977,8.3661e-07,0.67,0.3,0
0.03082,0.0040482,0.033088,-0.00041134,0.0098029,-0.00060045,0,0,0.06054,-0.026557,0,-0.0031224,0,0,0,0.033098,-0.00042213,0.0098029,-1.0267,0.01416,0.029756,8.3427e-07,0.68,0.3,0
0.031425,0.0040893,0.033048,-0.00043575,0.0097838,-0.00058755,0,0,0.060488,-0.026571,0,-0.0030552,0,0,0,0.033059,-0.00044609,0.0097838,-1.0051,0.014132,0.02974,8.319e-07,0.69,0.3,0
0.03203,0.0041283,0.03301,-0.00045734,0.0097657,-0.0005739,0,0,0.060434,-0.02658,0,-0.0029843,0,0,0,0.03302,-0.00046721,0.0097657,-0.98228,0.014106,0.029722,8.2951e-07,0.7,0.3,0
0.032634,0.0041654,0.032972,-0.00047642,0.0097487,-0.00055972,0,0,0.060381,-0.026585,0,-0.0029106,0,0,0,0.032982,-0.00048581,0.0097487,-0.95856,0.014082,0.029703,8.2714e-07,0.71,0.3,0
0.033237,0.0042005,0.032936,-0.00049328,0.0097328,-0.00054517,0,0,0.060328,-0.026588,0,-0.0028349,0,0,0,0.032945,-0.0005022,0.0097328,-0.93421,0.014058,0.029684,8.2481e-07,0.72,0.3,0
0.03384,0.0042338,0.032901,-0.00050821,0.0097178,-0.00053035,0,0,0.060276,-0.026588,0,-0.0027578,0,0,0,0.032909,-0.00051665,0.0097178,-0.90937,0.014037,0.029664,8.2254e-07,0.73,0.3,0
0.034443,0.0042653,0.032867,-0.00052148,0.0097038,-0.00051531,0,0,0.060226,-0.026586,0,-0.0026796,0,0,0,0.032875,-0.00052945,0.0097038,-0.88412,0.014017,0.029644,8.2033e-07,0.74,0.3,0
0.035045,0.004295,0.032836,-0.00053331,0.0096907,-0.00050007,0,0,0.060177,-0.026582,0,-0.0026004,0,0,0,0.032843,-0.00054083,0.0096907,-0.8585,0.013998,0.029624,8.1821e-07,0.75,0.3,0
0.035646,0.0043232,0.032805,-0.00054394,0.0096784,-0.00048463,0,0,0.06013,-0.026578,0,-0.0025201,0,0,0,0.032812,-0.000551,0.0096784,-0.8325,0.01398,0.029605,8.1619e-07,0.76,0.3,0
0.036247,0.0043497,0.032777,-0.00055353,0.0096669,-0.00046897,0,0,0.060085,-0.026573,0,-0.0024386,0,0,0,0.032783,-0.00056015,0.0096669,-0.80606,0.013963,0.029587,8.1427e-07,0.77,0.3,0
0.036848,0.0043746,0.03275,-0.00056226,0.0096563,-0.00045306,0,0,0.060043,-0.026568,0,-0.0023559,0,0,0,0.032756,-0.00056844,0.0096563,-0.77914,0.013948,0.029569,8.1245e-07,0.78,0.3,0
0.037448,0.0043981,0.032725,-0.00057027,0.0096463,-0.00043685,0,0,0.060004,-0.026563,0,-0.0022716,0,0,0,0.03273,-0.00057601,0.0096463,-0.75167,0.013934,0.029552,8.1075e-07,0.79,0.3,0
0.038048,0.0044201,0.032701,-0.00057766,0.0096371,-0.00042032,0,0,0.059967,-0.026558,0,-0.0021857,0,0,0,0.032706,-0.00058298,0.0096371,-0.72358,0.01392,0.029537,8.0916e-07,0.8,0.3,0
0.038648,0.0044407,0.032679,-0.00058452,0.0096284,-0.00040341,0,0,0.059932,-0.026554,0,-0.0020978,0,0,0,0.032684,-0.00058943,0.0096284,-0.6948,0.013908,0.029522,8.0768e-07,0.81,0.3,0
0.039247,0.00446,0.032659,-0.00059094,0.0096205,-0.0003861,0,0,0.059901,-0.02655,0,-0.0020077,0,0,0,0.032664,-0.00059543,0.0096205,-0.66527,0.013896,0.029509,8.0631e-07,0.82,0.3,0
0.039846,0.0044779,0.032641,-0.00059696,0.0096131,-0.00036835,0,0,0.059871,-0.026546,0,-0.0019154,0,0,0,0.032645,-0.00060105,0.0096131,-0.63493,0.013886,0.029496,8.0505e-07,0.83,0.3,0
0.040444,0.0044945,0.032623,-0.00060263,0.0096062,-0.00035013,0,0,0.059845,-0.026543,0,-0.0018207,0,0,0,0.032627,-0.00060633,0.0096062,-0.60374,0.013876,0.029485,8.039e-07,0.84,0.3,0
0.041043,0.0045099,0.032608,-0.00060798,0.0095999,-0.00033143,0,0,0.05982,-0.026541,0,-0.0017234,0,0,0,0.032611,-0.00061129,0.0095999,-0.57168,0.013867,0.029475,8.0284e-07,0.85,0.3,0
0.041641,0.0045241,0.032593,-0.00061302,0.0095941,-0.00031223,0,0,0.059798,-0.026539,0,-0.0016236,0,0,0,0.032596,-0.00061596,0.0095941,-0.53871,0.013858,0.029465,8.0188e-07,0.86,0.3,0
0.042238,0.0045372,0.03258,-0.00061777,0.0095888,-0.00029252,0,0,0.059778,-0.026537,0,-0.0015211,0,0,0,0.032583,-0.00062035,0.0095888,-0.50484,0.013851,0.029457,8.0102e-07,0.87,0.3,0
0.042836,0.0045491,0.032569,-0.00062222,0.009584,-0.00027232,0,0,0.059761,-0.026536,0,-0.001416,0,0,0,0.032571,-0.00062446,0.009584,-0.47008,0.013844,0.02945,8.0024e-07,0.88,0.3,0
0.043434,0.00456,0.032558,-0.00062637,0.0095796,-0.00025162,0,0,0.059745,-0.026535,0,-0.0013084,0,0,0,0.03256,-0.00062829,0.0095796,-0.43444,0.013837,0.029443,7.9954e-07,0.89,0.3,0
0.044031,0.0045698,0.032549,-0.00063023,0.0095756,-0.00023045,0,0,0.059731,-0.026535,0,-0.0011983,0,0,0,0.032551,-0.00063184,0.0095756,-0.39795,0.013831,0.029437,7.9892e-07,0.9,0.3,0
0.044628,0.0045785,0.032541,-0.00063377,0.0095721,-0.00020882,0,0,0.059718,-0.026535,0,-0.0010859,0,0,0,0.032542,-0.00063509,0.0095721,-0.36066,0.013826,0.029432,7.9838e-07,0.91,0.3,0
0.045225,0.0045863,0.032533,-0.00063698,0.0095689,-0.00018677,0,0,0.059708,-0.026535,0,-0.00097121,0,0,0,0.032534,-0.00063804,0.0095689,-0.32262,0.013822,0.029428,7.979e-07,0.92,0.3,0
0.045822,0.0045931,0.032527,-0.00063986,0.0095662,-0.00016433,0,0,0.059698,-0.026536,0,-0.00085452,0,0,0,0.032528,-0.00064068,0.0095662,-0.28389,0.013818,0.029424,7.9749e-07,0.93,0.3,0
0.046419,0.0045989,0.032522,-0.00064238,0.0095638,-0.00014154,0,0,0.059691,-0.026536,0,-0.000736,0,0,0,0.032522,-0.00064299,0.0095638,-0.24454,0.013814,0.029421,7.9714e-07,0.94,0.3,0
0.047016,0.0046038,0.032517,-0.00064454,0.0095618,-0.00011844,0,0,0.059684,-0.026537,0,-0.00061588,0,0,0,0.032518,-0.00064497,0.0095618,-0.20464,0.013812,0.029419,7.9685e-07,0.95,0.3,0
0.047613,0.0046078,0.032514,-0.00064632,0.0095602,-9.5074e-05,0,0,0.059679,-0.026537,0,-0.00049438,0,0,0,0.032514,-0.0006466,0.0095602,-0.16428,0.013809,0.029417,7.9662e-07,0.96,0.3,0
0.04821,0.0046109,0.032511,-0.00064772,0.009559,-7.1495e-05,0,0,0.059675,-0.026537,0,-0.00037178,0,0,0,0.032511,-0.00064788,0.009559,-0.12355,0.013807,0.029415,7.9644e-07,0.97,0.3,0
0.048807,0.0046131,0.032509,-0.00064873,0.0095581,-4.7755e-05,0,0,0.059672,-0.026538,0,-0.00024833,0,0,0,0.032509,-0.0006488,0.0095581,-0.082524,0.013806,0.029414,7.9631e-07,0.98,0.3,0
0.049403,0.0046144,0.032508,-0.00064933,0.0095576,-2.18e-05,0,0,0.059671,-0.026538,0,-0.00011336,0,0,0,0.032508,-0.00064936,0.0095576,-0.037673,0.013805,0.029413,7.9624e-07,0.99,0.3,0
0.049702,0.0046148,0.032507,-0.00064953,0.0095574,-7.7497e-06,0,0,0.05967,-0.026538,0,-4.0298e-05,0,0,0,0.032508,-0.00064954,0.0095574,-0.013393,0.013805,0.029413,7.9621e-07,1,0.3,0
0.00027568,8.2514e-05,0.037066,0.015532,0.015779,0.0031616,0,0,0.055346,-0.00064381,0,0.01644,0,0,0,0.037522,0.015076,0.015779,8.1827,0.022793,0.022104,5.5268e-07,0,0.31,0
0.00055346,0.00016358,0.037097,0.015228,0.015697,0.0031315,0,0,0.055639,-0.0012213,0,0.016284,0,0,0,0.037538,0.014786,0.015697,7.9943,0.022674,0.022312,5.6716e-07,0.01,0.31,0
0.0011128,0.00032262,0.037219,0.014722,0.015582,0.0030479,0,0,0.056256,-0.0022365,0,0.015849,0,0,0,0.037626,0.014315,0.015582,7.5842,0.022508,0.022705,5.9487e-07,0.02,0.31,0
0.0016786,0.00047527,0.037374,0.014392,0.01553,0.0029318,0,0,0.056796,-0.0029595,0,0.015245,0,0,0,0.037744,0.014023,0.01553,7.1581,0.022432,0.023005,6.1625e-07,0.03,0.31,0
0.0022487,0.00062127,0.037467,0.014206,0.015502,0.0028029,0,0,0.057109,-0.0033696,0,0.014575,0,0,0,0.0378,0.013872,0.015502,6.7752,0.022391,0.023156,6.2708e-07,0.04,0.31,0
0.0028208,0.00076106,0.037495,0.014161,0.015497,0.002679,0,0,0.057195,-0.0034725,0,0.013931,0,0,0,0.037799,0.013857,0.015497,6.4657,0.022385,0.023166,6.2771e-07,0.05,0.31,0
0.0033926,0.00089616,0.037486,0.013997,0.015445,0.0025866,0,0,0.053656,-0.0033648,0,0.012628,0,0,0,0.037768,0.013715,0.015445,6.214,0.022309,0.023238,6.3227e-07,0.06,0.31,0
0.0038939,0.0010124,0.03746,0.013321,0.015234,0.0025345,0,0,0.043165,-0.0033065,0,0.0099082,0,0,0,0.037724,0.013058,0.015234,5.9396,0.022005,0.023658,6.6016e-07,0.07,0.31,0
0.0042559,0.0010949,0.037425,0.012379,0.014941,0.0024894,0,0,0.032795,-0.003531,0,0.0072957,0,0,0,0.037671,0.012133,0.014941,5.6283,0.021582,0.024259,6.9984e-07,0.08,0.31,0
0.0045498,0.0011602,0.037403,0.011631,0.01471,0.0023979,0,0,0.029501,-0.0040032,0,0.0062345,0,0,0,0.037625,0.011409,0.01471,5.2747,0.021248,0.024732,7.3039e-07,0.09,0.31,0
0.0048459,0.0012234,0.037398,0.011008,0.014522,0.0022377,0,0,0.029739,-0.004568,0,0.0058181,0,0,0,0.037588,0.010818,0.014522,4.8183,0.020976,0.025124,7.5504e-07,0.1,0.31,0
0.0051446,0.001283,0.03739,0.010381,0.014331,0.0020344,0,0,0.029976,-0.0051353,0,0.0052895,0,0,0,0.037544,0.010228,0.014331,4.2892,0.020701,0.025514,7.7899e-07,0.11,0.31,0
0.0054454,0.0013381,0.037364,0.0097702,0.01414,0.0018235,0,0,0.030191,-0.0056812,0,0.0047411,0,0,0,0.037485,0.0096491,0.01414,3.7694,0.020425,0.025885,8.01e-07,0.12,0.31,0
0.0057484,0.0013886,0.037321,0.0091716,0.013948,0.0016219,0,0,0.030385,-0.0062089,0,0.004217,0,0,0,0.037415,0.0090775,0.013948,3.2912,0.020147,0.026244,8.2146e-07,0.13,0.31,0
0.0060531,0.0014346,0.037266,0.0085877,0.013756,0.0014337,0,0,0.030563,-0.006719,0,0.0037276,0,0,0,0.037339,0.0085154,0.013756,2.8585,0.01987,0.026594,8.4072e-07,0.14,0.31,0
0.0063596,0.0014762,0.037204,0.0080213,0.013567,0.0012587,0,0,0.030727,-0.00721,0,0.0032727,0,0,0,0.037259,0.0079664,0.013567,2.4684,0.019597,0.026933,8.5873e-07,0.15,0.31,0
0.0066677,0.0015136,0.037133,0.0074737,0.013382,0.0010966,0,0,0.030877,-0.007681,0,0.0028512,0,0,0,0.037175,0.0074326,0.013382,2.1172,0.01933,0.027259,8.754e-07,0.16,0.31,0
0.0069772,0.0015472,0.037056,0.0069453,0.0132,0.00094673,0,0,0.031012,-0.0081317,0,0.0024615,0,0,0,0.037086,0.006915,0.0132,1.8014,0.019067,0.027572,8.9065e-07,0.17,0.31,0
0.0072879,0.0015771,0.036972,0.0064358,0.013022,0.00080842,0,0,0.031135,-0.0085626,0,0.0021019,0,0,0,0.036994,0.0064139,0.013022,1.5174,0.01881,0.02787,9.0447e-07,0.18,0.31,0
0.0075999,0.0016036,0.036882,0.0059446,0.012848,0.00068092,0,0,0.031244,-0.0089744,0,0.0017704,0,0,0,0.036897,0.0059292,0.012848,1.2619,0.018558,0.028154,9.1687e-07,0.19,0.31,0
0.0079128,0.0016268,0.036786,0.0054705,0.012677,0.00056343,0,0,0.031341,-0.0093682,0,0.0014649,0,0,0,0.036796,0.00546,0.012677,1.0318,0.018311,0.028424,9.2791e-07,0.2,0.31,0
0.0082267,0.0016471,0.036684,0.0050124,0.012509,0.00045523,0,0,0.031428,-0.0097456,0,0.0011836,0,0,0,0.036691,0.0050055,0.012509,0.82449,0.018069,0.02868,9.3766e-07,0.21,0.31,0
0.0085414,0.0016646,0.036578,0.0045685,0.012344,0.00035565,0,0,0.031505,-0.010108,0,0.00092469,0,0,0,0.036583,0.0045642,0.012344,0.6375,0.01783,0.028924,9.4621e-07,0.22,0.31,0
0.0088568,0.0016795,0.036468,0.004137,0.012182,0.00026408,0,0,0.031573,-0.010458,0,0.0006866,0,0,0,0.036471,0.0041345,0.012182,0.46881,0.017596,0.029158,9.5368e-07,0.23,0.31,0
0.0091728,0.001692,0.036354,0.0037161,0.012021,0.00017995,0,0,0.031633,-0.010796,0,0.00046786,0,0,0,0.036355,0.0037148,0.012021,0.31662,0.017364,0.029382,9.6016e-07,0.24,0.31,0
0.0094894,0.0017023,0.036237,0.003304,0.011862,0.00010273,0,0,0.031687,-0.011126,0,0.00026709,0,0,0,0.036237,0.0033033,0.011862,0.17935,0.017134,0.029598,9.6572e-07,0.25,0.31,0
0.0098066,0.0017104,0.036115,0.002899,0.011704,3.1909e-05,0,0,0.031734,-0.011447,0,8.2963e-05,0,0,0,0.036116,0.0028986,0.011704,0.055576,0.016906,0.029807,9.7043e-07,0.26,0.31,0
0.010124,0.0017165,0.03599,0.0024996,0.011547,-3.2998e-05,0,0,0.031776,-0.011762,0,-8.5795e-05,0,0,0,0.035991,0.0024993,0.011547,-0.055999,0.016679,0.030009,9.7431e-07,0.27,0.31,0
0.010442,0.0017208,0.035861,0.0021045,0.01139,-9.2492e-05,0,0,0.031813,-0.012071,0,-0.00024048,0,0,0,0.035861,0.0021039,0.01139,-0.15661,0.016452,0.030205,9.7734e-07,0.28,0.31,0
0.01076,0.0017233,0.035725,0.0017124,0.011231,-0.00014712,0,0,0.031842,-0.012375,0,-0.00038252,0,0,0,0.035726,0.0017114,0.011231,-0.24751,0.016223,0.030395,9.7947e-07,0.29,0.31,0
0.011079,0.0017242,0.035582,0.0013219,0.011071,-0.00019757,0,0,0.031864,-0.012674,0,-0.00051368,0,0,0,0.035584,0.0013204,0.011071,-0.33013,0.015992,0.030577,9.8059e-07,0.3,0.31,0
0.011398,0.0017234,0.03543,0.00093162,0.010908,-0.00024475,0,0,0.031878,-0.01297,0,-0.00063636,0,0,0,0.035432,0.0009295,0.010908,-0.40625,0.015757,0.030752,9.8056e-07,0.31,0.31,0
0.011717,0.0017211,0.035264,0.00053981,0.010741,-0.00028998,0,0,0.03188,-0.013262,0,-0.00075395,0,0,0,0.035267,0.00053694,0.010741,-0.47824,0.015515,0.030918,9.7918e-07,0.32,0.31,0
0.012035,0.0017173,0.035082,0.0001441,0.010568,-0.00033514,0,0,0.031868,-0.013551,0,-0.00087136,0,0,0,0.035086,0.00014034,0.010568,-0.54935,0.015265,0.031073,9.7616e-07,0.33,0.31,0
0.012354,0.0017119,0.034877,-0.00025898,0.010385,-0.00038298,0,0,0.031839,-0.013838,0,-0.00099574,0,0,0,0.034882,-0.00026383,0.010385,-0.62416,0.015001,0.031215,9.7114e-07,0.34,0.31,0
0.012672,0.0017049,0.034642,-0.00067514,0.01019,-0.00043769,0,0,0.031788,-0.014125,0,-0.001138,0,0,0,0.034648,-0.00068147,0.01019,-0.70952,0.014719,0.031342,9.6369e-07,0.35,0.31,0
0.01299,0.0016962,0.034366,-0.0011146,0.0099755,-0.00050611,0,0,0.031708,-0.014417,0,-0.0013159,0,0,0,0.034375,-0.0011231,0.0099755,-0.81626,0.014409,0.031453,9.532e-07,0.36,0.31,0
0.013306,0.0016856,0.034034,-0.0015954,0.0097316,-0.00059897,0,0,0.031593,-0.014725,0,-0.0015573,0,0,0,0.034046,-0.0016073,0.0097316,-0.96115,0.014057,0.031551,9.3889e-07,0.37,0.31,0
0.013621,0.0016727,0.033627,-0.0021468,0.0094441,-0.00072945,0,0,0.031438,-0.015068,0,-0.0018966,0,0,0,0.033645,-0.0021646,0.0094441,-1.1641,0.013641,0.031645,9.2009e-07,0.38,0.31,0
0.013935,0.0016573,0.033165,-0.0028251,0.0091019,-0.0009061,0,0,0.031282,-0.015505,0,-0.0023559,0,0,0,0.033191,-0.0028517,0.0091019,-1.4343,0.013147,0.031799,8.9945e-07,0.39,0.31,0
0.014247,0.0016395,0.032784,-0.0038113,0.0086919,-0.0011034,0,0,0.03132,-0.016254,0,-0.0028688,0,0,0,0.032821,-0.0038477,0.0086919,-1.7156,0.012555,0.032282,8.9035e-07,0.4,0.31,0
0.014561,0.0016219,0.032586,-0.0043163,0.0084808,-0.0011564,0,0,0.035016,-0.017937,0,-0.0031158,0,0,0,0.032625,-0.0043559,0.0084808,-1.7577,0.01225,0.032544,8.7341e-07,0.41,0.31,0
0.014947,0.0016126,0.032606,-0.0027634,0.0089529,-0.00087107,0,0,0.045534,-0.020901,0,-0.0026888,0,0,0,0.032637,-0.0027938,0.0089529,-1.3289,0.012932,0.031311,8.2854e-07,0.42,0.31,0
0.015472,0.0016333,0.032887,-0.00044122,0.0097336,-0.00030167,0,0,0.056176,-0.023853,0,-0.0010651,0,0,0,0.032902,-0.00045703,0.0097336,-0.47834,0.01406,0.029638,8.0721e-07,0.43,0.31,0
0.016071,0.001702,0.033256,0.00030019,0.010067,0.00025376,0,0,0.060292,-0.025394,0,0.0013196,0,0,0,0.033265,0.00029145,0.010067,0.42697,0.014541,0.029335,8.2876e-07,0.44,0.31,0
0.016678,0.0018083,0.033538,0.00013435,0.010102,0.0005503,0,0,0.060934,-0.025915,0,0.0028615,0,0,0,0.033548,0.00012413,0.010102,0.939,0.014591,0.029719,8.5445e-07,0.45,0.31,0
0.01729,0.0019329,0.033716,0.000115,0.010149,0.00061846,0,0,0.061273,-0.026089,0,0.003216,0,0,0,0.033727,0.00010328,0.010149,1.0527,0.01466,0.029895,8.684e-07,0.46,0.31,0
0.017903,0.0020652,0.033809,0.00017227,0.010194,0.00057611,0,0,0.061397,-0.026057,0,0.0029958,0,0,0,0.033819,0.00016222,0.010194,0.98051,0.014725,0.029929,8.7364e-07,0.47,0.31,0
0.018518,0.0021987,0.033847,0.00024744,0.010228,0.00047287,0,0,0.061409,-0.02595,0,0.0024589,0,0,0,0.033854,0.00024054,0.010228,0.8059,0.014774,0.029898,8.741e-07,0.48,0.31,0
0.019132,0.0023294,0.033854,0.00030897,0.010249,0.00034148,0,0,0.061373,-0.025844,0,0.0017757,0,0,0,0.033858,0.00030519,0.010249,0.58301,0.014804,0.02985,8.7251e-07,0.49,0.31,0
0.019745,0.0024551,0.033844,0.00034926,0.010258,0.00020177,0,0,0.061325,-0.025763,0,0.0010492,0,0,0,0.033846,0.00034774,0.010258,0.34502,0.014817,0.029806,8.7038e-07,0.5,0.31,0
0.020358,0.0025745,0.033826,0.00036731,0.010258,6.4856e-05,0,0,0.061278,-0.025716,0,0.00033725,0,0,0,0.033827,0.00036691,0.010258,0.11102,0.014817,0.029773,8.6835e-07,0.51,0.31,0
0.020971,0.0026871,0.033804,0.00036377,0.01025,-6.332e-05,0,0,0.06124,-0.025705,0,-0.00032927,0,0,0,0.033804,0.00036341,0.01025,-0.10849,0.014806,0.029756,8.6671e-07,0.52,0.31,0
0.021583,0.0027928,0.033779,0.00034033,0.010236,-0.00017904,0,0,0.061213,-0.025729,0,-0.000931,0,0,0,0.033781,0.00033919,0.010236,-0.30673,0.014785,0.029754,8.6557e-07,0.53,0.31,0
0.022195,0.0028916,0.033754,0.00030029,0.010216,-0.00027994,0,0,0.061198,-0.025782,0,-0.0014557,0,0,0,0.033757,0.00029781,0.010216,-0.47936,0.014757,0.029766,8.6489e-07,0.54,0.31,0
0.022807,0.0029839,0.033728,0.00024785,0.010193,-0.00036497,0,0,0.061192,-0.025857,0,-0.0018979,0,0,0,0.033732,0.00024377,0.010193,-0.62447,0.014723,0.029787,8.6453e-07,0.55,0.31,0
0.023419,0.0030702,0.033701,0.0001872,0.010166,-0.00043429,0,0,0.06119,-0.025946,0,-0.0022583,0,0,0,0.033707,0.0001815,0.010166,-0.74231,0.014685,0.029814,8.6433e-07,0.56,0.31,0
0.024031,0.0031508,0.033672,0.00012206,0.010138,-0.00048888,0,0,0.061189,-0.026042,0,-0.0025422,0,0,0,0.03368,0.00011489,0.010138,-0.83469,0.014644,0.029843,8.641e-07,0.57,0.31,0
0.024642,0.0032263,0.033642,5.5441e-05,0.010109,-0.00053025,0,0,0.061185,-0.02614,0,-0.0027573,0,0,0,0.03365,4.7036e-05,0.010109,-0.90435,0.014602,0.029871,8.6373e-07,0.58,0.31,0
0.025254,0.0032972,0.033609,-1.0345e-05,0.01008,-0.00056015,0,0,0.061176,-0.026234,0,-0.0029128,0,0,0,0.033618,-1.9704e-05,0.01008,-0.9544,0.014559,0.029896,8.6311e-07,0.59,0.31,0
0.025866,0.0033638,0.033574,-7.3623e-05,0.01005,-0.00058035,0,0,0.061162,-0.026321,0,-0.0030178,0,0,0,0.033584,-8.3657e-05,0.01005,-0.98799,0.014517,0.029917,8.6219e-07,0.6,0.31,0
0.026478,0.0034266,0.033536,-0.00013326,0.010021,-0.00059253,0,0,0.06114,-0.026401,0,-0.0030812,0,0,0,0.033547,-0.00014371,0.010021,-1.0081,0.014475,0.029932,8.6097e-07,0.61,0.31,0
0.027089,0.0034859,0.033496,-0.00018855,0.0099924,-0.00059824,0,0,0.061111,-0.02647,0,-0.0031108,0,0,0,0.033507,-0.0001992,0.0099924,-1.0173,0.014433,0.029941,8.5944e-07,0.62,0.31,0
0.0277,0.003542,0.033455,-0.00023913,0.0099648,-0.00059882,0,0,0.061075,-0.02653,0,-0.0031138,0,0,0,0.033466,-0.0002498,0.0099648,-1.018,0.014394,0.029945,8.5763e-07,0.63,0.31,0
0.02831,0.0035951,0.033412,-0.00028491,0.0099383,-0.00059541,0,0,0.061033,-0.02658,0,-0.0030961,0,0,0,0.033423,-0.00029546,0.0099383,-1.0122,0.014355,0.029943,8.5558e-07,0.64,0.31,0
0.02892,0.0036455,0.033369,-0.00032598,0.0099129,-0.00058899,0,0,0.060986,-0.026621,0,-0.0030628,0,0,0,0.033379,-0.0003363,0.0099129,-1.0013,0.014319,0.029937,8.5332e-07,0.65,0.31,0
0.02953,0.0036933,0.033325,-0.00036255,0.0098887,-0.00058034,0,0,0.060934,-0.026653,0,-0.0030178,0,0,0,0.033335,-0.00037258,0.0098887,-0.98684,0.014284,0.029927,8.5089e-07,0.66,0.31,0
0.030139,0.0037387,0.033281,-0.00039494,0.0098657,-0.00057008,0,0,0.060879,-0.026678,0,-0.0029644,0,0,0,0.03329,-0.00040462,0.0098657,-0.96974,0.01425,0.029913,8.4835e-07,0.67,0.31,0
0.030748,0.0037819,0.033237,-0.0004235,0.009844,-0.00055869,0,0,0.060821,-0.026696,0,-0.0029052,0,0,0,0.033246,-0.0004328,0.009844,-0.95082,0.014219,0.029896,8.4573e-07,0.68,0.31,0
0.031355,0.0038229,0.033194,-0.00044862,0.0098235,-0.00054655,0,0,0.060762,-0.026708,0,-0.0028421,0,0,0,0.033203,-0.00045753,0.0098235,-0.93066,0.01419,0.029877,8.4306e-07,0.69,0.31,0
0.031963,0.0038619,0.033151,-0.00047069,0.0098042,-0.00053392,0,0,0.060703,-0.026715,0,-0.0027764,0,0,0,0.03316,-0.0004792,0.0098042,-0.90971,0.014162,0.029857,8.404e-07,0.7,0.31,0
0.03257,0.0038989,0.03311,-0.00049009,0.0097861,-0.00052098,0,0,0.060643,-0.026718,0,-0.0027091,0,0,0,0.033119,-0.00049819,0.0097861,-0.88824,0.014135,0.029835,8.3776e-07,0.71,0.31,0
0.033176,0.003934,0.033071,-0.00050717,0.0097691,-0.00050784,0,0,0.060584,-0.026718,0,-0.0026408,0,0,0,0.033078,-0.00051488,0.0097691,-0.86643,0.014111,0.029813,8.3516e-07,0.72,0.31,0
0.033781,0.0039672,0.033033,-0.00052227,0.0097531,-0.00049457,0,0,0.060527,-0.026716,0,-0.0025718,0,0,0,0.03304,-0.00052958,0.0097531,-0.84438,0.014088,0.02979,8.3265e-07,0.73,0.31,0
0.034386,0.0039988,0.032996,-0.00053569,0.0097382,-0.00048119,0,0,0.060471,-0.026712,0,-0.0025022,0,0,0,0.033003,-0.00054261,0.0097382,-0.82211,0.014066,0.029768,8.3022e-07,0.74,0.31,0
0.034991,0.0040286,0.032962,-0.00054768,0.0097242,-0.00046769,0,0,0.060418,-0.026707,0,-0.002432,0,0,0,0.032968,-0.00055423,0.0097242,-0.79959,0.014046,0.029746,8.279e-07,0.75,0.31,0
0.035595,0.0040567,0.032929,-0.0005585,0.0097112,-0.00045404,0,0,0.060366,-0.026701,0,-0.002361,0,0,0,0.032935,-0.00056467,0.0097112,-0.77677,0.014027,0.029725,8.2569e-07,0.76,0.31,0
0.036198,0.0040833,0.032898,-0.00056832,0.009699,-0.0004402,0,0,0.060318,-0.026695,0,-0.002289,0,0,0,0.032904,-0.00057413,0.009699,-0.75355,0.01401,0.029705,8.236e-07,0.77,0.31,0
0.036801,0.0041083,0.032869,-0.00057733,0.0096876,-0.0004261,0,0,0.060273,-0.026689,0,-0.0022157,0,0,0,0.032875,-0.00058278,0.0096876,-0.72986,0.013993,0.029686,8.2163e-07,0.78,0.31,0
0.037403,0.0041319,0.032842,-0.00058566,0.009677,-0.0004117,0,0,0.06023,-0.026683,0,-0.0021408,0,0,0,0.032847,-0.00059075,0.009677,-0.7056,0.013978,0.029668,8.198e-07,0.79,0.31,0
0.038006,0.0041539,0.032817,-0.00059343,0.0096671,-0.00039694,0,0,0.06019,-0.026677,0,-0.0020641,0,0,0,0.032822,-0.00059815,0.0096671,-0.68065,0.013964,0.029652,8.1809e-07,0.8,0.31,0
0.038607,0.0041746,0.032794,-0.00060071,0.009658,-0.00038176,0,0,0.060154,-0.026673,0,-0.0019852,0,0,0,0.032798,-0.00060509,0.009658,-0.65495,0.01395,0.029636,8.1651e-07,0.81,0.31,0
0.039209,0.0041939,0.032772,-0.00060759,0.0096495,-0.00036612,0,0,0.06012,-0.026668,0,-0.0019038,0,0,0,0.032776,-0.00061161,0.0096495,-0.6284,0.013938,0.029622,8.1505e-07,0.82,0.31,0
0.03981,0.0042118,0.032753,-0.0006141,0.0096416,-0.00034998,0,0,0.060089,-0.026665,0,-0.0018199,0,0,0,0.032756,-0.00061778,0.0096416,-0.60095,0.013927,0.029609,8.1372e-07,0.83,0.31,0
0.04041,0.0042285,0.032735,-0.00062029,0.0096343,-0.00033332,0,0,0.060061,-0.026662,0,-0.0017332,0,0,0,0.032738,-0.00062363,0.0096343,-0.57254,0.013916,0.029597,8.125e-07,0.84,0.31,0
0.041011,0.0042439,0.032718,-0.00062617,0.0096275,-0.00031609,0,0,0.060035,-0.02666,0,-0.0016437,0,0,0,0.032721,-0.00062917,0.0096275,-0.54313,0.013906,0.029587,8.1139e-07,0.85,0.31,0
0.041611,0.0042581,0.032703,-0.00063175,0.0096213,-0.0002983,0,0,0.060012,-0.026658,0,-0.0015511,0,0,0,0.032706,-0.00063443,0.0096213,-0.51271,0.013898,0.029577,8.1038e-07,0.86,0.31,0
0.042211,0.0042712,0.032689,-0.00063704,0.0096157,-0.00027993,0,0,0.059991,-0.026657,0,-0.0014556,0,0,0,0.032692,-0.0006394,0.0096157,-0.48126,0.013889,0.029569,8.0947e-07,0.87,0.31,0
0.042811,0.0042832,0.032677,-0.00064203,0.0096105,-0.00026099,0,0,0.059973,-0.026657,0,-0.0013572,0,0,0,0.032679,-0.00064408,0.0096105,-0.44881,0.013882,0.029561,8.0866e-07,0.88,0.31,0
0.043411,0.004294,0.032666,-0.00064671,0.0096058,-0.0002415,0,0,0.059956,-0.026656,0,-0.0012558,0,0,0,0.032668,-0.00064847,0.0096058,-0.41537,0.013875,0.029555,8.0793e-07,0.89,0.31,0
0.04401,0.0043038,0.032656,-0.00065106,0.0096015,-0.00022146,0,0,0.059942,-0.026657,0,-0.0011516,0,0,0,0.032658,-0.00065254,0.0096015,-0.38097,0.013869,0.029549,8.0729e-07,0.9,0.31,0
0.044609,0.0043125,0.032647,-0.00065507,0.0095977,-0.00020091,0,0,0.059929,-0.026657,0,-0.0010448,0,0,0,0.032649,-0.00065629,0.0095977,-0.34568,0.013863,0.029544,8.0673e-07,0.91,0.31,0
0.045209,0.0043203,0.03264,-0.00065872,0.0095943,-0.00017989,0,0,0.059918,-0.026658,0,-0.00093542,0,0,0,0.032641,-0.0006597,0.0095943,-0.30954,0.013858,0.02954,8.0624e-07,0.92,0.31,0
0.045808,0.0043271,0.032633,-0.000662,0.0095914,-0.00015842,0,0,0.059909,-0.026659,0,-0.00082379,0,0,0,0.032634,-0.00066276,0.0095914,-0.27263,0.013854,0.029536,8.0581e-07,0.93,0.31,0
0.046407,0.0043329,0.032628,-0.00066487,0.0095888,-0.00013656,0,0,0.059901,-0.02666,0,-0.0007101,0,0,0,0.032628,-0.00066544,0.0095888,-0.23502,0.013851,0.029533,8.0545e-07,0.94,0.31,0
0.047006,0.0043378,0.032623,-0.00066734,0.0095867,-0.00011435,0,0,0.059894,-0.026661,0,-0.0005946,0,0,0,0.032623,-0.00066774,0.0095867,-0.19681,0.013847,0.029531,8.0516e-07,0.95,0.31,0
0.047605,0.0043418,0.032619,-0.00066938,0.009585,-9.184e-05,0,0,0.059889,-0.026661,0,-0.00047757,0,0,0,0.03262,-0.00066964,0.009585,-0.15808,0.013845,0.029529,8.0492e-07,0.96,0.31,0
0.048204,0.0043449,0.032616,-0.00067098,0.0095836,-6.9093e-05,0,0,0.059885,-0.026662,0,-0.00035928,0,0,0,0.032617,-0.00067113,0.0095836,-0.11893,0.013843,0.029527,8.0473e-07,0.97,0.31,0
0.048802,0.0043471,0.032614,-0.00067213,0.0095827,-4.6164e-05,0,0,0.059882,-0.026662,0,-0.00024005,0,0,0,0.032614,-0.0006722,0.0095827,-0.079467,0.013842,0.029526,8.046e-07,0.98,0.31,0
0.049401,0.0043484,0.032613,-0.00067282,0.0095821,-2.1012e-05,0,0,0.059881,-0.026663,0,-0.00010926,0,0,0,0.032613,-0.00067285,0.0095821,-0.036171,0.013841,0.029526,8.0453e-07,0.99,0.31,0
0.049701,0.0043488,0.032613,-0.00067305,0.0095819,-7.3625e-06,0,0,0.05988,-0.026663,0,-3.8285e-05,0,0,0,0.032613,-0.00067306,0.0095819,-0.012675,0.013841,0.029526,8.045e-07,1,0.31,0
0.00027631,7.6247e-05,0.037152,0.015583,0.01582,0.0029263,0,0,0.055462,-0.00061801,0,0.015217,0,0,0,0.037543,0.015191,0.01582,7.5909,0.022852,0.022045,5.4863e-07,0,0.32,0
0.00055462,0.00015169,0.037179,0.015289,0.01574,0.0029103,0,0,0.055739,-0.0011725,0,0.015134,0,0,0,0.03756,0.014908,0.01574,7.4482,0.022736,0.022249,5.6294e-07,0.01,0.32,0
0.0011148,0.00030089,0.037288,0.014802,0.015627,0.0028667,0,0,0.056319,-0.0021449,0,0.014907,0,0,0,0.037649,0.014442,0.015627,7.1547,0.022573,0.022639,5.9044e-07,0.02,0.32,0
0.001681,0.0004466,0.037424,0.014484,0.015572,0.0028087,0,0,0.056815,-0.0028302,0,0.014605,0,0,0,0.037764,0.014145,0.015572,6.881,0.022494,0.022939,6.1184e-07,0.03,0.32,0
0.0022511,0.00058874,0.037498,0.014305,0.015541,0.0027483,0,0,0.057089,-0.003213,0,0.014291,0,0,0,0.03782,0.013984,0.015541,6.6668,0.022448,0.023097,6.2311e-07,0.04,0.32,0
0.0028228,0.00072749,0.037513,0.014251,0.015529,0.0026917,0,0,0.057158,-0.0033228,0,0.013997,0,0,0,0.037821,0.013944,0.015529,6.5152,0.022431,0.023125,6.2507e-07,0.05,0.32,0
0.0033942,0.00086325,0.037493,0.014057,0.015465,0.0026419,0,0,0.053624,-0.003265,0,0.012903,0,0,0,0.037787,0.013763,0.015465,6.3569,0.022338,0.023222,6.3135e-07,0.06,0.32,0
0.0038952,0.00097961,0.037456,0.013362,0.015245,0.002589,0,0,0.043139,-0.0032518,0,0.010154,0,0,0,0.037732,0.013086,0.015245,6.076,0.022021,0.023645,6.5936e-07,0.07,0.32,0
0.004257,0.0010599,0.037411,0.012449,0.014958,0.0025118,0,0,0.032753,-0.0034596,0,0.0073835,0,0,0,0.037662,0.012198,0.014958,5.6975,0.021606,0.024206,6.9617e-07,0.08,0.32,0
0.0045503,0.0011209,0.037383,0.011772,0.014746,0.0023933,0,0,0.029428,-0.0038674,0,0.0062225,0,0,0,0.037606,0.011549,0.014746,5.2966,0.0213,0.024615,7.2248e-07,0.09,0.32,0
0.0048456,0.0011788,0.037379,0.011204,0.014575,0.0022332,0,0,0.029645,-0.004382,0,0.0058064,0,0,0,0.037569,0.011014,0.014575,4.8468,0.021053,0.024967,7.4463e-07,0.1,0.32,0
0.0051432,0.0012327,0.037379,0.010589,0.01439,0.002047,0,0,0.029885,-0.0049414,0,0.0053223,0,0,0,0.037535,0.010433,0.01439,4.3498,0.020786,0.025357,7.6893e-07,0.11,0.32,0
0.0054433,0.0012823,0.037369,0.0099688,0.014201,0.0018538,0,0,0.030118,-0.0055023,0,0.0048198,0,0,0,0.037495,0.009843,0.014201,3.8578,0.020513,0.025752,7.929e-07,0.12,0.32,0
0.0057456,0.0013274,0.037343,0.0093584,0.01401,0.001666,0,0,0.030333,-0.0060478,0,0.0043315,0,0,0,0.037443,0.0092587,0.01401,3.3992,0.020237,0.026135,8.1546e-07,0.13,0.32,0
0.0060499,0.0013681,0.037301,0.0087627,0.013819,0.0014886,0,0,0.030527,-0.0065734,0,0.0038704,0,0,0,0.03738,0.0086846,0.013819,2.9815,0.019961,0.026504,8.3636e-07,0.14,0.32,0
0.0063561,0.0014048,0.037246,0.0081844,0.013629,0.001323,0,0,0.030702,-0.0070782,0,0.0034397,0,0,0,0.037307,0.0081237,0.013629,2.6042,0.019687,0.026858,8.5562e-07,0.15,0.32,0
0.006664,0.0014374,0.037181,0.007625,0.013442,0.0011692,0,0,0.030861,-0.0075617,0,0.0030399,0,0,0,0.037227,0.0075782,0.013442,2.2645,0.019416,0.027196,8.7325e-07,0.16,0.32,0
0.0069733,0.0014664,0.037106,0.0070851,0.013257,0.0010269,0,0,0.031003,-0.0080238,0,0.00267,0,0,0,0.037141,0.0070495,0.013257,1.9592,0.019149,0.027519,8.8928e-07,0.17,0.32,0
0.007284,0.001492,0.037023,0.0065649,0.013076,0.00089559,0,0,0.031131,-0.0084649,0,0.0023285,0,0,0,0.03705,0.0065381,0.013076,1.6847,0.018888,0.027825,9.0372e-07,0.18,0.32,0
0.0075959,0.0015143,0.036933,0.0060636,0.012899,0.00077441,0,0,0.031244,-0.008886,0,0.0020135,0,0,0,0.036953,0.0060438,0.012899,1.4378,0.018632,0.028116,9.1663e-07,0.19,0.32,0
0.0079089,0.0015336,0.036837,0.0055804,0.012725,0.00066258,0,0,0.031345,-0.0092883,0,0.0017227,0,0,0,0.036851,0.005566,0.012725,1.2152,0.018381,0.028391,9.2809e-07,0.2,0.32,0
0.0082228,0.00155,0.036736,0.0051138,0.012555,0.00055934,0,0,0.031435,-0.0096733,0,0.0014543,0,0,0,0.036746,0.0051036,0.012555,1.0142,0.018135,0.028653,9.3821e-07,0.21,0.32,0
0.0085376,0.0015639,0.036629,0.004662,0.012387,0.00046405,0,0,0.031515,-0.010043,0,0.0012065,0,0,0,0.036637,0.0046549,0.012387,0.8325,0.017893,0.028902,9.4709e-07,0.22,0.32,0
0.0088531,0.0015753,0.036519,0.0042231,0.012223,0.00037618,0,0,0.031586,-0.0104,0,0.00097806,0,0,0,0.036524,0.0042184,0.012223,0.6681,0.017655,0.02914,9.5487e-07,0.23,0.32,0
0.0091693,0.0015843,0.036406,0.0037952,0.01206,0.00029533,0,0,0.031649,-0.010745,0,0.00076785,0,0,0,0.036409,0.0037922,0.01206,0.51955,0.01742,0.029369,9.6167e-07,0.24,0.32,0
0.0094861,0.0015912,0.036289,0.0033765,0.0119,0.0002212,0,0,0.031706,-0.01108,0,0.00057512,0,0,0,0.036291,0.0033747,0.0119,0.38566,0.017189,0.02959,9.6756e-07,0.25,0.32,0
0.0098035,0.0015961,0.03617,0.0029652,0.01174,0.00015359,0,0,0.031758,-0.011408,0,0.00039933,0,0,0,0.036171,0.0029642,0.01174,0.26553,0.016958,0.029804,9.7264e-07,0.26,0.32,0
0.010121,0.0015991,0.036047,0.0025599,0.011582,9.2359e-05,0,0,0.031804,-0.011729,0,0.00024013,0,0,0,0.036047,0.0025593,0.011582,0.15844,0.01673,0.030012,9.7691e-07,0.27,0.32,0
0.01044,0.0016002,0.03592,0.0021591,0.011424,3.7404e-05,0,0,0.031845,-0.012044,0,9.7251e-05,0,0,0,0.03592,0.0021588,0.011424,0.063797,0.016501,0.030214,9.8037e-07,0.28,0.32,0
0.010758,0.0015997,0.035788,0.0017616,0.011265,-1.1374e-05,0,0,0.03188,-0.012354,0,-2.9572e-05,0,0,0,0.035788,0.0017613,0.011265,-0.01893,0.016271,0.03041,9.8297e-07,0.29,0.32,0
0.011077,0.0015975,0.035649,0.0013662,0.011105,-5.4114e-05,0,0,0.031908,-0.01266,0,-0.0001407,0,0,0,0.035649,0.0013658,0.011105,-0.090315,0.01604,0.0306,9.8459e-07,0.3,0.32,0
0.011396,0.0015938,0.035501,0.00097168,0.010942,-9.1052e-05,0,0,0.031927,-0.012961,0,-0.00023673,0,0,0,0.035502,0.00097109,0.010942,-0.15106,0.015805,0.030781,9.8509e-07,0.31,0.32,0
0.011716,0.0015886,0.035341,0.00057658,0.010775,-0.00012259,0,0,0.031935,-0.013258,0,-0.00031873,0,0,0,0.035342,0.00057574,0.010775,-0.20213,0.015564,0.030953,9.8422e-07,0.32,0.32,0
0.012035,0.0015819,0.035164,0.00017899,0.010603,-0.00014937,0,0,0.031929,-0.013551,0,-0.00038837,0,0,0,0.035165,0.00017786,0.010603,-0.24485,0.015315,0.031113,9.8167e-07,0.33,0.32,0
0.012354,0.0015736,0.034964,-0.00022393,0.010422,-0.00017248,0,0,0.031904,-0.01384,0,-0.00044844,0,0,0,0.034965,-0.0002254,0.010422,-0.28121,0.015054,0.031258,9.7699e-07,0.34,0.32,0
0.012673,0.0015639,0.034731,-0.00063683,0.010228,-0.00019366,0,0,0.031854,-0.014125,0,-0.00050353,0,0,0,0.034733,-0.00063874,0.010228,-0.31429,0.014774,0.031383,9.6957e-07,0.35,0.32,0
0.012991,0.0015524,0.034454,-0.0010677,0.010016,-0.00021589,0,0,0.031769,-0.014409,0,-0.00056132,0,0,0,0.034456,-0.0010703,0.010016,-0.34905,0.014467,0.031483,9.5854e-07,0.36,0.32,0
0.013308,0.0015389,0.03411,-0.0015307,0.0097739,-0.00024393,0,0,0.031637,-0.014696,0,-0.00063421,0,0,0,0.034114,-0.0015342,0.0097739,-0.39332,0.014118,0.031553,9.4266e-07,0.37,0.32,0
0.013624,0.0015229,0.033676,-0.0020537,0.0094869,-0.00028652,0,0,0.031447,-0.015003,0,-0.00074496,0,0,0,0.033682,-0.002059,0.0094869,-0.46119,0.013703,0.031592,9.2064e-07,0.38,0.32,0
0.013937,0.0015036,0.033125,-0.0027063,0.0091256,-0.00036883,0,0,0.031199,-0.015382,0,-0.00095895,0,0,0,0.033134,-0.0027151,0.0091256,-0.59149,0.013181,0.031637,8.9198e-07,0.39,0.32,0
0.014248,0.0014791,0.032505,-0.0036475,0.0086572,-0.00057686,0,0,0.031002,-0.015996,0,-0.0014998,0,0,0,0.032521,-0.0036637,0.0086572,-0.91061,0.012505,0.031866,8.6317e-07,0.4,0.32,0
0.014557,0.0014444,0.03174,-0.0041981,0.0082626,-0.00081993,0,0,0.033857,-0.01748,0,-0.002262,0,0,0,0.031766,-0.0042234,0.0082626,-1.2835,0.011935,0.031668,8.1676e-07,0.41,0.32,0
0.014924,0.0014036,0.031557,-0.0029558,0.0085805,-0.00095627,0,0,0.042829,-0.020229,0,-0.0032798,0,0,0,0.031592,-0.0029907,0.0085805,-1.5359,0.012394,0.030532,7.8715e-07,0.42,0.32,0
0.015415,0.0013937,0.032265,-0.00093062,0.0094003,-0.00082944,0,0,0.053029,-0.023262,0,-0.0034685,0,0,0,0.032301,-0.00096652,0.0094003,-1.3809,0.013578,0.029507,8.0514e-07,0.43,0.32,0
0.015991,0.0014483,0.032685,-0.00015909,0.0097578,-0.00030441,0,0,0.058388,-0.02523,0,-0.0013772,0,0,0,0.032705,-0.0001788,0.0097578,-0.51629,0.014095,0.029212,8.0836e-07,0.44,0.32,0
0.016587,0.0015506,0.032902,-0.00012105,0.0098342,0.00020739,0,0,0.059975,-0.025884,0,0.0010784,0,0,0,0.032909,-0.00012824,0.0098342,0.35655,0.014205,0.029353,8.1285e-07,0.45,0.32,0
0.017191,0.0016738,0.033302,4.2057e-05,0.010003,0.00042067,0,0,0.060578,-0.025899,0,0.0021875,0,0,0,0.033309,3.5176e-05,0.010003,0.72274,0.014449,0.029578,8.3817e-07,0.46,0.32,0
0.017799,0.0018065,0.033564,0.00021465,0.010134,0.00046681,0,0,0.060919,-0.025789,0,0.0024274,0,0,0,0.033571,0.00020757,0.010134,0.80105,0.014637,0.029673,8.5321e-07,0.47,0.32,0
0.018409,0.0019409,0.033716,0.00034579,0.010219,0.00041537,0,0,0.061094,-0.025669,0,0.0021599,0,0,0,0.033722,0.00034032,0.010219,0.71264,0.01476,0.029701,8.6101e-07,0.48,0.32,0
0.019021,0.0020725,0.033807,0.00042968,0.010271,0.00031475,0,0,0.061193,-0.025587,0,0.0016367,0,0,0,0.03381,0.00042644,0.010271,0.54006,0.014836,0.029711,8.6536e-07,0.49,0.32,0
0.019633,0.0021988,0.033859,0.00047642,0.010301,0.00019522,0,0,0.061252,-0.025543,0,0.0010151,0,0,0,0.03386,0.00047502,0.010301,0.335,0.014879,0.029717,8.6785e-07,0.5,0.32,0
0.020246,0.0023184,0.033886,0.00049365,0.010314,7.0422e-05,0,0,0.061287,-0.025533,0,0.00036619,0,0,0,0.033886,0.00049327,0.010314,0.12086,0.014898,0.029725,8.6933e-07,0.51,0.32,0
0.020859,0.0024309,0.033896,0.00048256,0.010314,-5.1435e-05,0,0,0.061315,-0.025561,0,-0.00026746,0,0,0,0.033896,0.00048227,0.010314,-0.088109,0.014897,0.029743,8.7043e-07,0.52,0.32,0
0.021472,0.0025361,0.033896,0.00044627,0.010303,-0.00016381,0,0,0.061343,-0.025627,0,-0.00085182,0,0,0,0.033897,0.0004453,0.010303,-0.28046,0.014882,0.029773,8.7155e-07,0.53,0.32,0
0.022086,0.0026341,0.033889,0.00039063,0.010284,-0.00026221,0,0,0.061374,-0.025723,0,-0.0013635,0,0,0,0.033892,0.00038846,0.010284,-0.44833,0.014855,0.029814,8.7276e-07,0.54,0.32,0
0.0227,0.0027255,0.033878,0.00032197,0.01026,-0.00034456,0,0,0.061406,-0.025839,0,-0.0017917,0,0,0,0.033881,0.00031834,0.01026,-0.58816,0.01482,0.02986,8.7397e-07,0.55,0.32,0
0.023314,0.0028106,0.033861,0.00024583,0.010232,-0.00041075,0,0,0.061435,-0.025964,0,-0.0021359,0,0,0,0.033866,0.00024076,0.010232,-0.69993,0.01478,0.029909,8.75e-07,0.56,0.32,0
0.023928,0.0028902,0.033839,0.00016669,0.010202,-0.00046188,0,0,0.061458,-0.026091,0,-0.0024018,0,0,0,0.033846,0.00016032,0.010202,-0.78573,0.014736,0.029955,8.7569e-07,0.57,0.32,0
0.024543,0.0029646,0.033813,8.7878e-05,0.01017,-0.00049968,0,0,0.061471,-0.026214,0,-0.0025983,0,0,0,0.03382,8.0447e-05,0.01017,-0.84873,0.01469,0.029996,8.7595e-07,0.58,0.32,0
0.025158,0.0030344,0.033782,1.1787e-05,0.010138,-0.0005261,0,0,0.061473,-0.026328,0,-0.0027357,0,0,0,0.03379,3.5669e-06,0.010138,-0.89243,0.014644,0.03003,8.7574e-07,0.59,0.32,0
0.025772,0.0031001,0.033746,-5.9981e-05,0.010106,-0.00054309,0,0,0.061465,-0.026431,0,-0.0028241,0,0,0,0.033755,-6.873e-05,0.010106,-0.92028,0.014597,0.030057,8.7503e-07,0.6,0.32,0
0.026387,0.003162,0.033707,-0.00012645,0.010074,-0.00055247,0,0,0.061446,-0.026522,0,-0.0028728,0,0,0,0.033716,-0.0001355,0.010074,-0.93543,0.014552,0.030076,8.7385e-07,0.61,0.32,0
0.027001,0.0032206,0.033665,-0.00018712,0.010043,-0.00055585,0,0,0.061416,-0.026599,0,-0.0028904,0,0,0,0.033674,-0.00019627,0.010043,-0.94065,0.014507,0.030087,8.7225e-07,0.62,0.32,0
0.027615,0.003276,0.03362,-0.00024184,0.010014,-0.00055461,0,0,0.061377,-0.026664,0,-0.002884,0,0,0,0.033629,-0.00025095,0.010014,-0.93829,0.014464,0.030091,8.7027e-07,0.63,0.32,0
0.028229,0.0033286,0.033574,-0.00029072,0.0099849,-0.00054993,0,0,0.061331,-0.026717,0,-0.0028596,0,0,0,0.033583,-0.00029969,0.0099849,-0.93031,0.014423,0.030089,8.6798e-07,0.64,0.32,0
0.028842,0.0033786,0.033526,-0.00033405,0.0099576,-0.00054275,0,0,0.061278,-0.026758,0,-0.0028223,0,0,0,0.033535,-0.00034278,0.0099576,-0.91829,0.014383,0.03008,8.6544e-07,0.65,0.32,0
0.029454,0.0034261,0.033478,-0.00037221,0.0099317,-0.00053382,0,0,0.06122,-0.02679,0,-0.0027759,0,0,0,0.033486,-0.00038067,0.0099317,-0.90346,0.014346,0.030068,8.6271e-07,0.66,0.32,0
0.030066,0.0034713,0.033429,-0.00040568,0.0099071,-0.00052373,0,0,0.061158,-0.026813,0,-0.0027234,0,0,0,0.033438,-0.00041382,0.0099071,-0.88678,0.01431,0.030051,8.5984e-07,0.67,0.32,0
0.030678,0.0035143,0.033381,-0.00043493,0.0098839,-0.00051291,0,0,0.061093,-0.026829,0,-0.0026671,0,0,0,0.033389,-0.00044275,0.0098839,-0.86895,0.014277,0.030031,8.569e-07,0.68,0.32,0
0.031288,0.0035552,0.033334,-0.00046047,0.0098621,-0.00050168,0,0,0.061027,-0.026839,0,-0.0026087,0,0,0,0.033342,-0.00046795,0.0098621,-0.85048,0.014245,0.030009,8.5392e-07,0.69,0.32,0
0.031898,0.003594,0.033288,-0.00048277,0.0098416,-0.00049026,0,0,0.060961,-0.026843,0,-0.0025493,0,0,0,0.033295,-0.00048992,0.0098416,-0.8317,0.014216,0.029985,8.5095e-07,0.7,0.32,0
0.032507,0.003631,0.033243,-0.00050228,0.0098223,-0.00047877,0,0,0.060895,-0.026844,0,-0.0024896,0,0,0,0.03325,-0.00050911,0.0098223,-0.81282,0.014188,0.029961,8.4802e-07,0.71,0.32,0
0.033116,0.0036661,0.0332,-0.00051942,0.0098043,-0.00046728,0,0,0.06083,-0.026842,0,-0.0024299,0,0,0,0.033207,-0.00052593,0.0098043,-0.79393,0.014162,0.029936,8.4517e-07,0.72,0.32,0
0.033724,0.0036995,0.033159,-0.00053457,0.0097874,-0.00045581,0,0,0.060767,-0.026837,0,-0.0023702,0,0,0,0.033165,-0.00054076,0.0097874,-0.77505,0.014137,0.029911,8.4241e-07,0.73,0.32,0
0.034331,0.003731,0.03312,-0.00054805,0.0097716,-0.00044434,0,0,0.060706,-0.026831,0,-0.0023106,0,0,0,0.033126,-0.00055394,0.0097716,-0.75612,0.014115,0.029886,8.3976e-07,0.74,0.32,0
0.034938,0.0037609,0.033083,-0.00056015,0.0097568,-0.00043283,0,0,0.060648,-0.026824,0,-0.0022507,0,0,0,0.033089,-0.00056574,0.0097568,-0.73708,0.014093,0.029863,8.3723e-07,0.75,0.32,0
0.035544,0.0037891,0.033048,-0.00057113,0.009743,-0.0004212,0,0,0.060593,-0.026817,0,-0.0021903,0,0,0,0.033053,-0.00057642,0.009743,-0.7178,0.014073,0.02984,8.3484e-07,0.76,0.32,0
0.03615,0.0038158,0.033015,-0.00058118,0.0097302,-0.0004094,0,0,0.060541,-0.02681,0,-0.0021289,0,0,0,0.03302,-0.00058619,0.0097302,-0.69815,0.014055,0.029818,8.326e-07,0.77,0.32,0
0.036755,0.0038409,0.032984,-0.00059048,0.0097182,-0.00039733,0,0,0.060492,-0.026802,0,-0.0020661,0,0,0,0.032989,-0.0005952,0.0097182,-0.67801,0.014037,0.029798,8.305e-07,0.78,0.32,0
0.03736,0.0038644,0.032956,-0.00059917,0.009707,-0.00038492,0,0,0.060447,-0.026796,0,-0.0020016,0,0,0,0.03296,-0.0006036,0.009707,-0.65724,0.014021,0.029779,8.2854e-07,0.79,0.32,0
0.037964,0.0038866,0.032929,-0.00060736,0.0096965,-0.00037211,0,0,0.060405,-0.02679,0,-0.001935,0,0,0,0.032933,-0.0006115,0.0096965,-0.63571,0.014006,0.029761,8.2673e-07,0.8,0.32,0
0.038568,0.0039073,0.032905,-0.00061512,0.0096868,-0.00035883,0,0,0.060366,-0.026785,0,-0.0018659,0,0,0,0.032908,-0.00061897,0.0096868,-0.61333,0.013992,0.029745,8.2506e-07,0.81,0.32,0
0.039171,0.0039266,0.032882,-0.00062252,0.0096778,-0.00034502,0,0,0.060331,-0.026781,0,-0.0017941,0,0,0,0.032886,-0.00062608,0.0096778,-0.58999,0.013979,0.02973,8.2353e-07,0.82,0.32,0
0.039775,0.0039446,0.032861,-0.0006296,0.0096695,-0.00033063,0,0,0.060299,-0.026778,0,-0.0017193,0,0,0,0.032864,-0.00063287,0.0096695,-0.56562,0.013967,0.029717,8.2213e-07,0.83,0.32,0
0.040377,0.0039613,0.032842,-0.00063638,0.0096618,-0.00031563,0,0,0.060269,-0.026775,0,-0.0016413,0,0,0,0.032845,-0.00063936,0.0096618,-0.54016,0.013956,0.029705,8.2086e-07,0.84,0.32,0
0.04098,0.0039767,0.032825,-0.00064287,0.0096546,-0.00029999,0,0,0.060243,-0.026773,0,-0.00156,0,0,0,0.032828,-0.00064556,0.0096546,-0.51357,0.013946,0.029695,8.1971e-07,0.85,0.32,0
0.041582,0.003991,0.032809,-0.00064907,0.009648,-0.00028371,0,0,0.060219,-0.026773,0,-0.0014753,0,0,0,0.032812,-0.00065148,0.009648,-0.48583,0.013936,0.029685,8.1866e-07,0.86,0.32,0
0.042184,0.0040041,0.032795,-0.00065498,0.009642,-0.00026676,0,0,0.060198,-0.026772,0,-0.0013872,0,0,0,0.032797,-0.00065711,0.009642,-0.45694,0.013927,0.029677,8.1773e-07,0.87,0.32,0
0.042786,0.004016,0.032782,-0.00066058,0.0096365,-0.00024917,0,0,0.060179,-0.026772,0,-0.0012957,0,0,0,0.032784,-0.00066244,0.0096365,-0.4269,0.013919,0.029669,8.169e-07,0.88,0.32,0
0.043388,0.0040268,0.032771,-0.00066585,0.0096315,-0.00023095,0,0,0.060162,-0.026773,0,-0.0012009,0,0,0,0.032772,-0.00066745,0.0096315,-0.39575,0.013912,0.029663,8.1615e-07,0.89,0.32,0
0.043989,0.0040366,0.032761,-0.00067076,0.009627,-0.00021211,0,0,0.060148,-0.026774,0,-0.001103,0,0,0,0.032762,-0.00067212,0.009627,-0.36353,0.013906,0.029658,8.155e-07,0.9,0.32,0
0.044591,0.0040454,0.032752,-0.00067531,0.0096229,-0.00019269,0,0,0.060135,-0.026775,0,-0.001002,0,0,0,0.032753,-0.00067642,0.0096229,-0.3303,0.0139,0.029653,8.1492e-07,0.91,0.32,0
0.045192,0.0040531,0.032744,-0.00067945,0.0096193,-0.00017274,0,0,0.060124,-0.026777,0,-0.00089824,0,0,0,0.032745,-0.00068035,0.0096193,-0.29613,0.013895,0.029649,8.1442e-07,0.92,0.32,0
0.045793,0.0040599,0.032737,-0.00068317,0.0096162,-0.00015229,0,0,0.060114,-0.026778,0,-0.00079189,0,0,0,0.032738,-0.00068387,0.0096162,-0.26109,0.01389,0.029645,8.14e-07,0.93,0.32,0
0.046394,0.0040657,0.032731,-0.00068644,0.0096135,-0.00013139,0,0,0.060106,-0.02678,0,-0.00068323,0,0,0,0.032732,-0.00068697,0.0096135,-0.22529,0.013886,0.029643,8.1363e-07,0.94,0.32,0
0.046995,0.0040706,0.032727,-0.00068925,0.0096112,-0.00011011,0,0,0.0601,-0.026781,0,-0.00057255,0,0,0,0.032727,-0.00068962,0.0096112,-0.1888,0.013883,0.02964,8.1333e-07,0.95,0.32,0
0.047596,0.0040746,0.032723,-0.00069158,0.0096093,-8.849e-05,0,0,0.060095,-0.026782,0,-0.00046015,0,0,0,0.032723,-0.00069182,0.0096093,-0.15174,0.01388,0.029639,8.1309e-07,0.96,0.32,0
0.048197,0.0040776,0.03272,-0.0006934,0.0096079,-6.6606e-05,0,0,0.060091,-0.026783,0,-0.00034635,0,0,0,0.03272,-0.00069354,0.0096079,-0.11422,0.013878,0.029637,8.1291e-07,0.97,0.32,0
0.048798,0.0040798,0.032718,-0.00069471,0.0096069,-4.4518e-05,0,0,0.060088,-0.026784,0,-0.00023149,0,0,0,0.032718,-0.00069478,0.0096069,-0.076345,0.013877,0.029636,8.1278e-07,0.98,0.32,0
0.049399,0.0040811,0.032716,-0.00069551,0.0096063,-2.0199e-05,0,0,0.060086,-0.026785,0,-0.00010503,0,0,0,0.032716,-0.00069553,0.0096063,-0.03464,0.013876,0.029636,8.127e-07,0.99,0.32,0
0.0497,0.0040816,0.032716,-0.00069577,0.009606,-6.966e-06,0,0,0.060086,-0.026785,0,-3.6223e-05,0,0,0,0.032716,-0.00069578,0.009606,-0.011947,0.013875,0.029636,8.1268e-07,1,0.32,0
0.00027663,7.0153e-05,0.037196,0.015606,0.015841,0.0026978,0,0,0.055524,-0.00061035,0,0.014029,0,0,0,0.037529,0.015273,0.015841,7.0159,0.022881,0.021979,5.4401e-07,0,0.33,0
0.00055524,0.00014013,0.037223,0.015316,0.015762,0.0026963,0,0,0.0558,-0.0011592,0,0.014021,0,0,0,0.037551,0.014988,0.015762,6.916,0.022767,0.022188,5.5868e-07,0.01,0.33,0
0.001116,0.00027973,0.037335,0.014833,0.01565,0.0026933,0,0,0.05638,-0.0021255,0,0.014005,0,0,0,0.037653,0.014514,0.01565,6.7327,0.022606,0.022593,5.8734e-07,0.02,0.33,0
0.0016828,0.00041867,0.037474,0.014513,0.015596,0.0026942,0,0,0.056882,-0.0028149,0,0.01401,0,0,0,0.037786,0.014201,0.015596,6.6042,0.022528,0.022919,6.1066e-07,0.03,0.33,0
0.0022536,0.00055701,0.037552,0.01433,0.015565,0.0027015,0,0,0.057167,-0.0032098,0,0.014048,0,0,0,0.037862,0.01402,0.015565,6.5491,0.022482,0.023109,6.2429e-07,0.04,0.33,0
0.0028262,0.00069461,0.037571,0.014273,0.015553,0.0027092,0,0,0.057246,-0.0033285,0,0.014088,0,0,0,0.037882,0.013962,0.015553,6.5462,0.022466,0.023165,6.2833e-07,0.05,0.33,0
0.0033986,0.00083086,0.037551,0.014087,0.015491,0.0027006,0,0,0.053704,-0.0032599,0,0.013191,0,0,0,0.037858,0.01378,0.015491,6.4859,0.022377,0.023271,6.3529e-07,0.06,0.33,0
0.0039003,0.00094733,0.037509,0.013425,0.01528,0.0026516,0,0,0.043185,-0.0032108,0,0.010421,0,0,0,0.037799,0.013135,0.01528,6.221,0.022071,0.023669,6.6163e-07,0.07,0.33,0
0.0042623,0.0010257,0.037457,0.012563,0.015006,0.002547,0,0,0.032756,-0.0033715,0,0.0075047,0,0,0,0.037716,0.012304,0.015006,5.7909,0.021675,0.024178,6.9505e-07,0.08,0.33,0
0.0045554,0.0010829,0.037423,0.01193,0.014806,0.0023968,0,0,0.029402,-0.0037386,0,0.0062317,0,0,0,0.037647,0.011706,0.014806,5.3284,0.021386,0.024539,7.1816e-07,0.09,0.33,0
0.0048503,0.0011358,0.037414,0.011386,0.01464,0.0022244,0,0,0.029606,-0.0042302,0,0.0057835,0,0,0,0.037603,0.011196,0.01464,4.8547,0.021146,0.024866,7.3869e-07,0.1,0.33,0
0.0051475,0.0011841,0.037413,0.010777,0.014457,0.0020472,0,0,0.029843,-0.0047843,0,0.0053226,0,0,0,0.03757,0.010619,0.014457,4.3743,0.020882,0.025253,7.6293e-07,0.11,0.33,0
0.0054472,0.0012281,0.037406,0.010152,0.014267,0.0018721,0,0,0.03008,-0.00535,0,0.0048673,0,0,0,0.037535,0.010023,0.014267,3.9157,0.020608,0.025655,7.8766e-07,0.12,0.33,0
0.0057491,0.0012677,0.037383,0.0095334,0.014075,0.0017017,0,0,0.030301,-0.005904,0,0.0044244,0,0,0,0.037487,0.0094291,0.014075,3.4877,0.020331,0.026049,8.1115e-07,0.13,0.33,0
0.0060532,0.0013031,0.037344,0.0089279,0.013882,0.0015384,0,0,0.030501,-0.0064397,0,0.0039998,0,0,0,0.037428,0.0088442,0.013882,3.0934,0.020051,0.026428,8.3293e-07,0.14,0.33,0
0.0063591,0.0013346,0.037291,0.0083387,0.013689,0.0013841,0,0,0.030682,-0.0069551,0,0.0035987,0,0,0,0.037357,0.0082721,0.013689,2.734,0.019773,0.026791,8.5298e-07,0.15,0.33,0
0.0066668,0.0013624,0.037226,0.0077682,0.013498,0.00124,0,0,0.030846,-0.0074491,0,0.003224,0,0,0,0.037278,0.0077155,0.013498,2.4088,0.019497,0.027138,8.7131e-07,0.16,0.33,0
0.006976,0.0013867,0.037152,0.0072175,0.013311,0.0011063,0,0,0.030993,-0.0079212,0,0.0028764,0,0,0,0.037193,0.0071762,0.013311,2.1159,0.019227,0.027469,8.8794e-07,0.17,0.33,0
0.0072867,0.0014078,0.037069,0.0066872,0.013127,0.00098254,0,0,0.031125,-0.0083715,0,0.0025546,0,0,0,0.037101,0.006655,0.013127,1.8522,0.018961,0.027782,9.029e-07,0.18,0.33,0
0.0075985,0.0014258,0.036979,0.0061767,0.012947,0.00086803,0,0,0.031242,-0.0088009,0,0.0022569,0,0,0,0.037004,0.0061519,0.012947,1.6145,0.018701,0.028078,9.1625e-07,0.19,0.33,0
0.0079115,0.0014411,0.036883,0.0056851,0.01277,0.00076196,0,0,0.031346,-0.0092108,0,0.0019811,0,0,0,0.036902,0.0056662,0.01277,1.3996,0.018446,0.028359,9.2808e-07,0.2,0.33,0
0.0082255,0.0014537,0.036781,0.0052108,0.012598,0.00066357,0,0,0.031439,-0.0096029,0,0.0017253,0,0,0,0.036795,0.0051965,0.012598,1.2047,0.018197,0.028626,9.3854e-07,0.21,0.33,0
0.0085403,0.0014638,0.036675,0.0047518,0.012428,0.00057225,0,0,0.031521,-0.0099793,0,0.0014878,0,0,0,0.036686,0.0047412,0.012428,1.0276,0.017952,0.028879,9.4776e-07,0.22,0.33,0
0.0088559,0.0014716,0.036566,0.0043061,0.012262,0.0004876,0,0,0.031596,-0.010342,0,0.0012678,0,0,0,0.036574,0.0042985,0.012262,0.8666,0.017711,0.029122,9.5589e-07,0.23,0.33,0
0.0091722,0.0014771,0.036454,0.0038717,0.012098,0.00040941,0,0,0.031663,-0.010694,0,0.0010645,0,0,0,0.03646,0.0038663,0.012098,0.72053,0.017475,0.029357,9.6308e-07,0.24,0.33,0
0.0094892,0.0014807,0.03634,0.0034465,0.011936,0.00033765,0,0,0.031725,-0.011036,0,0.00087788,0,0,0,0.036344,0.0034428,0.011936,0.58867,0.017241,0.029584,9.6944e-07,0.25,0.33,0
0.0098067,0.0014822,0.036224,0.0030288,0.011776,0.0002724,0,0,0.031783,-0.011371,0,0.00070825,0,0,0,0.036227,0.0030263,0.011776,0.47064,0.01701,0.029805,9.7505e-07,0.26,0.33,0
0.010125,0.0014819,0.036106,0.0026169,0.011617,0.00021389,0,0,0.031836,-0.0117,0,0.00055611,0,0,0,0.036108,0.0026153,0.011617,0.36631,0.01678,0.030021,9.7996e-07,0.27,0.33,0
0.010443,0.0014799,0.035985,0.0022095,0.011458,0.00016238,0,0,0.031885,-0.012024,0,0.00042219,0,0,0,0.035986,0.0022085,0.011458,0.27573,0.016551,0.030234,9.8418e-07,0.28,0.33,0
0.010763,0.0014762,0.035861,0.0018053,0.0113,0.00011823,0,0,0.031929,-0.012343,0,0.00030739,0,0,0,0.035862,0.0018046,0.0113,0.19907,0.016322,0.030441,9.8768e-07,0.29,0.33,0
0.011082,0.001471,0.035732,0.0014031,0.01114,8.1793e-05,0,0,0.031969,-0.012659,0,0.00021266,0,0,0,0.035732,0.0014027,0.01114,0.13655,0.016092,0.030644,9.9037e-07,0.3,0.33,0
0.011402,0.0014642,0.035596,0.0010018,0.010979,5.3483e-05,0,0,0.032002,-0.012971,0,0.00013906,0,0,0,0.035597,0.0010015,0.010979,0.088465,0.015859,0.030842,9.9212e-07,0.31,0.33,0
0.011722,0.0014559,0.035452,0.0006001,0.010815,3.3717e-05,0,0,0.032027,-0.01328,0,8.7664e-05,0,0,0,0.035452,0.00059975,0.010815,0.055141,0.015622,0.031032,9.9277e-07,0.32,0.33,0
0.012042,0.0014463,0.035294,0.00019622,0.010647,2.294e-05,0,0,0.032041,-0.013586,0,5.9644e-05,0,0,0,0.035295,0.00019583,0.010647,0.036941,0.015379,0.031214,9.9207e-07,0.33,0.33,0
0.012363,0.0014351,0.03512,-0.00021227,0.010472,2.1622e-05,0,0,0.032042,-0.01389,0,5.6218e-05,0,0,0,0.035121,-0.00021275,0.010472,0.034266,0.015127,0.031386,9.897e-07,0.34,0.33,0
0.012683,0.0014224,0.034923,-0.00062925,0.010288,3.0231e-05,0,0,0.032025,-0.014193,0,7.8601e-05,0,0,0,0.034924,-0.00062988,0.010288,0.047512,0.014861,0.031545,9.8528e-07,0.35,0.33,0
0.013003,0.0014081,0.034695,-0.0010611,0.01009,4.9101e-05,0,0,0.031986,-0.014497,0,0.00012766,0,0,0,0.034696,-0.001062,0.01009,0.076838,0.014575,0.03169,9.7833e-07,0.36,0.33,0
0.013323,0.0013917,0.034427,-0.0015193,0.0098724,7.7628e-05,0,0,0.031921,-0.014809,0,0.00020183,0,0,0,0.034429,-0.0015206,0.0098724,0.12086,0.01426,0.031821,9.6841e-07,0.37,0.33,0
0.013642,0.0013726,0.03411,-0.0020261,0.0096252,0.00011009,0,0,0.03183,-0.015147,0,0.00028624,0,0,0,0.034112,-0.0020281,0.0096252,0.17001,0.013903,0.03195,9.5528e-07,0.38,0.33,0
0.01396,0.0013496,0.033734,-0.0026279,0.0093319,0.00011867,0,0,0.031723,-0.015548,0,0.00030853,0,0,0,0.033737,-0.0026307,0.0093319,0.18003,0.013479,0.032104,9.3934e-07,0.39,0.33,0
0.014276,0.0013196,0.033291,-0.0034169,0.0089622,-3.1382e-05,0,0,0.031627,-0.016093,0,-8.1594e-05,0,0,0,0.033296,-0.0034216,0.0089622,-0.056203,0.012945,0.032356,9.2147e-07,0.4,0.33,0
0.014592,0.001273,0.032309,-0.0038211,0.0085465,-0.000321,0,0,0.033017,-0.017015,0,-0.00093529,0,0,0,0.032318,-0.0038297,0.0085465,-0.52911,0.012345,0.031826,8.7107e-07,0.41,0.33,0
0.014933,0.0012081,0.031703,-0.0027704,0.0086799,-0.00070585,0,0,0.038284,-0.018505,0,-0.0025012,0,0,0,0.031729,-0.0027958,0.0086799,-1.1763,0.012538,0.030471,8.4498e-07,0.42,0.33,0
0.015358,0.001166,0.032654,-0.001131,0.0094568,-0.0010422,0,0,0.0469,-0.021012,0,-0.0042175,0,0,0,0.032698,-0.0011755,0.0094568,-1.7269,0.01366,0.030015,9.022e-07,0.43,0.33,0
0.015886,0.001196,0.033338,-0.0005258,0.0098436,-0.00085932,0,0,0.054992,-0.024193,0,-0.003822,0,0,0,0.033372,-0.00056031,0.0098436,-1.4215,0.014219,0.030111,9.0829e-07,0.44,0.33,0
0.016474,0.0012906,0.033111,-0.00045817,0.0097958,-0.00031269,0,0,0.059334,-0.026077,0,-0.0015198,0,0,0,0.033123,-0.00047071,0.0097958,-0.51755,0.01415,0.029818,8.4954e-07,0.45,0.33,0
0.017078,0.0014149,0.0332,-0.00015263,0.0099141,9.1664e-05,0,0,0.060543,-0.026174,0,0.00047666,0,0,0,0.033204,-0.00015671,0.0099141,0.1626,0.01432,0.029638,8.353e-07,0.46,0.33,0
0.017685,0.0015494,0.03352,0.00019117,0.010113,0.00026468,0,0,0.060858,-0.025798,0,0.0013764,0,0,0,0.033523,0.0001881,0.010113,0.45597,0.014608,0.029646,8.5008e-07,0.47,0.33,0
0.018295,0.0016853,0.033734,0.00040259,0.010241,0.0002855,0,0,0.061082,-0.02558,0,0.0014846,0,0,0,0.033737,0.00039972,0.010241,0.4911,0.014793,0.029667,8.6052e-07,0.48,0.33,0
0.018906,0.0018177,0.033867,0.00051589,0.010315,0.0002376,0,0,0.061236,-0.025478,0,0.0012355,0,0,0,0.033869,0.00051397,0.010315,0.40835,0.014899,0.029694,8.6744e-07,0.49,0.33,0
0.019519,0.0019442,0.033954,0.00058483,0.010362,0.00015447,0,0,0.061339,-0.025419,0,0.00080326,0,0,0,0.033954,0.00058393,0.010362,0.26533,0.014967,0.029714,8.7201e-07,0.5,0.33,0
0.020133,0.0020639,0.034003,0.00061242,0.010385,5.0547e-05,0,0,0.061407,-0.025407,0,0.00026285,0,0,0,0.034003,0.00061214,0.010385,0.086846,0.015,0.029734,8.7494e-07,0.51,0.33,0
0.020748,0.0021759,0.034029,0.00059756,0.010388,-6.0294e-05,0,0,0.061466,-0.025455,0,-0.00031353,0,0,0,0.034029,0.00059726,0.010388,-0.10316,0.015005,0.029769,8.7741e-07,0.52,0.33,0
0.021363,0.0022802,0.034042,0.00054886,0.010377,-0.00016558,0,0,0.061529,-0.025554,0,-0.00086102,0,0,0,0.034043,0.00054789,0.010377,-0.28304,0.01499,0.029821,8.7997e-07,0.53,0.33,0
0.021978,0.0023771,0.034048,0.00047709,0.010357,-0.0002577,0,0,0.061594,-0.025689,0,-0.0013401,0,0,0,0.03405,0.00047501,0.010357,-0.43962,0.014961,0.029885,8.8259e-07,0.54,0.33,0
0.022594,0.0024671,0.034045,0.00039167,0.010331,-0.0003337,0,0,0.061656,-0.025842,0,-0.0017352,0,0,0,0.034048,0.00038829,0.010331,-0.56794,0.014923,0.029953,8.8499e-07,0.55,0.33,0
0.023211,0.0025509,0.034034,0.00029978,0.0103,-0.00039346,0,0,0.061709,-0.026001,0,-0.002046,0,0,0,0.034039,0.00029515,0.0103,-0.66809,0.014878,0.030019,8.8695e-07,0.56,0.33,0
0.023829,0.002629,0.034016,0.00020662,0.010267,-0.00043832,0,0,0.061748,-0.026157,0,-0.0022793,0,0,0,0.034022,0.00020091,0.010267,-0.74266,0.01483,0.030079,8.883e-07,0.57,0.33,0
0.024446,0.002702,0.033991,0.00011585,0.010232,-0.00047024,0,0,0.061773,-0.026302,0,-0.0024453,0,0,0,0.033997,0.0001093,0.010232,-0.79525,0.014779,0.03013,8.8897e-07,0.58,0.33,0
0.025064,0.0027706,0.033959,2.9865e-05,0.010197,-0.00049137,0,0,0.061782,-0.026433,0,-0.0025551,0,0,0,0.033966,2.2725e-05,0.010197,-0.82968,0.014728,0.030171,8.8895e-07,0.59,0.33,0
0.025682,0.0028352,0.033921,-4.9856e-05,0.010161,-0.00050377,0,0,0.061775,-0.026549,0,-0.0026196,0,0,0,0.033929,-5.7353e-05,0.010161,-0.84958,0.014678,0.030202,8.8827e-07,0.6,0.33,0
0.0263,0.0028962,0.033879,-0.00012255,0.010127,-0.00050932,0,0,0.061755,-0.026648,0,-0.0026484,0,0,0,0.033886,-0.00013021,0.010127,-0.85819,0.014628,0.030223,8.8698e-07,0.61,0.33,0
0.026917,0.0029539,0.033832,-0.00018796,0.010093,-0.00050965,0,0,0.061721,-0.026731,0,-0.0026502,0,0,0,0.03384,-0.00019563,0.010093,-0.85829,0.014579,0.030234,8.8516e-07,0.62,0.33,0
0.027534,0.0030087,0.033783,-0.00024618,0.010061,-0.00050615,0,0,0.061677,-0.026799,0,-0.002632,0,0,0,0.033791,-0.00025375,0.010061,-0.85219,0.014533,0.030237,8.829e-07,0.63,0.33,0
0.028151,0.0030608,0.033732,-0.00029755,0.01003,-0.00049994,0,0,0.061624,-0.026852,0,-0.0025997,0,0,0,0.033739,-0.00030494,0.01003,-0.84173,0.014488,0.030232,8.8028e-07,0.64,0.33,0
0.028766,0.0031103,0.033679,-0.00034258,0.010001,-0.0004919,0,0,0.061563,-0.026893,0,-0.0025579,0,0,0,0.033686,-0.00034973,0.010001,-0.82838,0.014446,0.030221,8.7737e-07,0.65,0.33,0
0.029382,0.0031575,0.033626,-0.00038182,0.0099733,-0.00048272,0,0,0.061497,-0.026923,0,-0.0025101,0,0,0,0.033633,-0.00038872,0.0099733,-0.81326,0.014406,0.030205,8.7427e-07,0.66,0.33,0
0.029996,0.0032025,0.033573,-0.00041591,0.0099471,-0.00047292,0,0,0.061427,-0.026944,0,-0.0024592,0,0,0,0.03358,-0.00042253,0.0099471,-0.7972,0.014368,0.030184,8.7104e-07,0.67,0.33,0
0.03061,0.0032453,0.033521,-0.00044546,0.0099225,-0.00046286,0,0,0.061355,-0.026957,0,-0.0024069,0,0,0,0.033527,-0.00045181,0.0099225,-0.78077,0.014333,0.030161,8.6773e-07,0.68,0.33,0
0.031224,0.0032861,0.033469,-0.00047108,0.0098994,-0.00045278,0,0,0.061281,-0.026963,0,-0.0023545,0,0,0,0.033475,-0.00047716,0.0098994,-0.76435,0.014299,0.030135,8.6441e-07,0.69,0.33,0
0.031836,0.003325,0.033419,-0.00049333,0.0098777,-0.00044283,0,0,0.061207,-0.026965,0,-0.0023027,0,0,0,0.033425,-0.00049916,0.0098777,-0.74817,0.014268,0.030108,8.6112e-07,0.7,0.33,0
0.032448,0.003362,0.033371,-0.00051274,0.0098574,-0.00043308,0,0,0.061135,-0.026962,0,-0.002252,0,0,0,0.033376,-0.00051831,0.0098574,-0.73232,0.014238,0.03008,8.5789e-07,0.71,0.33,0
0.033059,0.0033971,0.033324,-0.00052977,0.0098384,-0.00042353,0,0,0.061064,-0.026957,0,-0.0022024,0,0,0,0.03333,-0.0005351,0.0098384,-0.7168,0.014211,0.030052,8.5477e-07,0.72,0.33,0
0.033669,0.0034305,0.03328,-0.00054484,0.0098206,-0.00041416,0,0,0.060995,-0.02695,0,-0.0021536,0,0,0,0.033285,-0.00054994,0.0098206,-0.70153,0.014185,0.030025,8.5176e-07,0.73,0.33,0
0.034279,0.0034621,0.033238,-0.0005583,0.009804,-0.00040488,0,0,0.060929,-0.026942,0,-0.0021054,0,0,0,0.033243,-0.00056318,0.009804,-0.68639,0.014161,0.029998,8.4889e-07,0.74,0.33,0
0.034888,0.0034921,0.033199,-0.00057046,0.0097885,-0.00039562,0,0,0.060867,-0.026933,0,-0.0020572,0,0,0,0.033203,-0.00057512,0.0097885,-0.67124,0.014139,0.029972,8.4617e-07,0.75,0.33,0
0.035496,0.0035204,0.033162,-0.00058158,0.009774,-0.00038628,0,0,0.060808,-0.026925,0,-0.0020086,0,0,0,0.033166,-0.00058603,0.009774,-0.65589,0.014118,0.029948,8.4362e-07,0.76,0.33,0
0.036104,0.0035471,0.033127,-0.00059187,0.0097605,-0.00037675,0,0,0.060753,-0.026916,0,-0.0019591,0,0,0,0.033131,-0.0005961,0.0097605,-0.64017,0.014098,0.029925,8.4123e-07,0.77,0.33,0
0.036711,0.0035723,0.033094,-0.0006015,0.0097479,-0.00036693,0,0,0.060701,-0.026908,0,-0.001908,0,0,0,0.033099,-0.00060551,0.0097479,-0.6239,0.01408,0.029903,8.39e-07,0.78,0.33,0
0.037318,0.0035959,0.033064,-0.0006106,0.0097361,-0.00035672,0,0,0.060654,-0.026902,0,-0.001855,0,0,0,0.033068,-0.0006144,0.0097361,-0.60693,0.014063,0.029883,8.3694e-07,0.79,0.33,0
0.037924,0.0036181,0.033037,-0.00061927,0.0097252,-0.00034604,0,0,0.06061,-0.026896,0,-0.0017994,0,0,0,0.03304,-0.00062284,0.0097252,-0.5891,0.014048,0.029865,8.3505e-07,0.8,0.33,0
0.03853,0.0036389,0.033011,-0.00062759,0.009715,-0.00033482,0,0,0.06057,-0.026891,0,-0.0017411,0,0,0,0.033014,-0.00063093,0.009715,-0.57028,0.014033,0.029849,8.3331e-07,0.81,0.33,0
0.039135,0.0036582,0.032987,-0.0006356,0.0097056,-0.00032298,0,0,0.060533,-0.026887,0,-0.0016795,0,0,0,0.032991,-0.00063871,0.0097056,-0.55037,0.014019,0.029834,8.3172e-07,0.82,0.33,0
0.039741,0.0036763,0.032966,-0.00064332,0.0096968,-0.00031047,0,0,0.0605,-0.026884,0,-0.0016144,0,0,0,0.032969,-0.0006462,0.0096968,-0.52927,0.014006,0.029821,8.3027e-07,0.83,0.33,0
0.040345,0.003693,0.032946,-0.00065078,0.0096886,-0.00029725,0,0,0.06047,-0.026883,0,-0.0015457,0,0,0,0.032949,-0.00065342,0.0096886,-0.50693,0.013995,0.029809,8.2896e-07,0.84,0.33,0
0.04095,0.0037084,0.032928,-0.00065797,0.0096811,-0.0002833,0,0,0.060443,-0.026882,0,-0.0014732,0,0,0,0.032931,-0.00066037,0.0096811,-0.4833,0.013984,0.029798,8.2778e-07,0.85,0.33,0
0.041554,0.0037227,0.032912,-0.00066489,0.0096742,-0.00026861,0,0,0.060419,-0.026882,0,-0.0013968,0,0,0,0.032914,-0.00066704,0.0096742,-0.45836,0.013974,0.029789,8.2672e-07,0.86,0.33,0
0.042158,0.0037358,0.032898,-0.0006715,0.0096678,-0.00025317,0,0,0.060397,-0.026882,0,-0.0013165,0,0,0,0.0329,-0.00067342,0.0096678,-0.43211,0.013965,0.029781,8.2577e-07,0.87,0.33,0
0.042762,0.0037477,0.032885,-0.00067779,0.009662,-0.00023699,0,0,0.060379,-0.026884,0,-0.0012323,0,0,0,0.032886,-0.00067947,0.009662,-0.40458,0.013956,0.029774,8.2493e-07,0.88,0.33,0
0.043366,0.0037585,0.032873,-0.00068373,0.0096567,-0.00022009,0,0,0.060362,-0.026885,0,-0.0011445,0,0,0,0.032874,-0.00068518,0.0096567,-0.3758,0.013949,0.029768,8.2418e-07,0.89,0.33,0
0.043969,0.0037683,0.032862,-0.00068928,0.009652,-0.0002025,0,0,0.060347,-0.026887,0,-0.001053,0,0,0,0.032864,-0.00069051,0.009652,-0.34582,0.013942,0.029763,8.2352e-07,0.9,0.33,0
0.044573,0.003777,0.032853,-0.00069443,0.0096477,-0.00018426,0,0,0.060335,-0.026889,0,-0.00095814,0,0,0,0.032854,-0.00069544,0.0096477,-0.3147,0.013936,0.029758,8.2295e-07,0.91,0.33,0
0.045176,0.0037848,0.032845,-0.00069912,0.0096439,-0.00016541,0,0,0.060324,-0.026892,0,-0.00086013,0,0,0,0.032846,-0.00069994,0.0096439,-0.28254,0.01393,0.029755,8.2245e-07,0.92,0.33,0
0.045779,0.0037915,0.032838,-0.00070334,0.0096405,-0.00014601,0,0,0.060315,-0.026894,0,-0.00075924,0,0,0,0.032839,-0.00070399,0.0096405,-0.24942,0.013925,0.029752,8.2203e-07,0.93,0.33,0
0.046382,0.0037973,0.032833,-0.00070706,0.0096377,-0.00012611,0,0,0.060307,-0.026896,0,-0.00065576,0,0,0,0.032833,-0.00070754,0.0096377,-0.21544,0.013921,0.029749,8.2167e-07,0.94,0.33,0
0.046985,0.0038022,0.032828,-0.00071025,0.0096352,-0.00010577,0,0,0.0603,-0.026898,0,-0.00055001,0,0,0,0.032828,-0.00071059,0.0096352,-0.18071,0.013918,0.029747,8.2137e-07,0.95,0.33,0
0.047588,0.0038062,0.032824,-0.0007129,0.0096333,-8.5068e-05,0,0,0.060295,-0.0269,0,-0.00044236,0,0,0,0.032824,-0.00071312,0.0096333,-0.14534,0.013915,0.029746,8.2113e-07,0.96,0.33,0
0.048191,0.0038092,0.032821,-0.00071497,0.0096317,-6.4066e-05,0,0,0.060291,-0.026901,0,-0.00033314,0,0,0,0.032821,-0.0007151,0.0096317,-0.10946,0.013913,0.029744,8.2095e-07,0.97,0.33,0
0.048794,0.0038114,0.032819,-0.00071647,0.0096307,-4.2837e-05,0,0,0.060289,-0.026902,0,-0.00022275,0,0,0,0.032819,-0.00071653,0.0096307,-0.073194,0.013911,0.029744,8.2082e-07,0.98,0.33,0
0.049397,0.0038127,0.032817,-0.00071737,0.00963,-1.9371e-05,0,0,0.060287,-0.026903,0,-0.00010073,0,0,0,0.032817,-0.00071739,0.00963,-0.033099,0.01391,0.029743,8.2074e-07,0.99,0.33,0
0.049699,0.0038131,0.032817,-0.00071767,0.0096298,-6.5665e-06,0,0,0.060287,-0.026903,0,-3.4146e-05,0,0,0,0.032817,-0.00071767,0.0096298,-0.011221,0.01391,0.029743,8.2072e-07,1,0.33,0
0.00027663,6.404e-05,0.037198,0.015602,0.01584,0.0024674,0,0,0.055531,-0.00061862,0,0.012831,0,0,0,0.037477,0.015323,0.01584,6.4355,0.02288,0.021902,5.3849e-07,0,0.34,0
0.00055531,0.00012851,0.03723,0.015309,0.015762,0.0024781,0,0,0.055817,-0.0011774,0,0.012886,0,0,0,0.037508,0.015031,0.015762,6.3707,0.022767,0.022122,5.5394e-07,0.01,0.34,0
0.0011163,0.00025838,0.037356,0.014817,0.015652,0.0025101,0,0,0.05643,-0.0021704,0,0.013053,0,0,0,0.037633,0.01454,0.015652,6.2788,0.022608,0.022558,5.8483e-07,0.02,0.34,0
0.0016839,0.0003903,0.037519,0.014484,0.015601,0.0025625,0,0,0.056988,-0.0029038,0,0.013325,0,0,0,0.037802,0.014202,0.015601,6.2715,0.022535,0.022932,6.1168e-07,0.03,0.34,0
0.0022561,0.00052455,0.037626,0.014283,0.015573,0.0026334,0,0,0.057339,-0.0033528,0,0.013694,0,0,0,0.03792,0.01399,0.015573,6.3573,0.022494,0.023179,6.2961e-07,0.04,0.34,0
0.0028307,0.00066092,0.037668,0.014224,0.015568,0.0027104,0,0,0.057462,-0.0034943,0,0.014094,0,0,0,0.037978,0.013914,0.015568,6.5097,0.022486,0.023281,6.371e-07,0.05,0.34,0
0.0034053,0.00079805,0.03766,0.014077,0.015521,0.0027562,0,0,0.053905,-0.0033667,0,0.013459,0,0,0,0.037978,0.013759,0.015521,6.5819,0.022419,0.023389,6.4444e-07,0.06,0.34,0
0.0039088,0.00091539,0.03762,0.013501,0.015336,0.0027223,0,0,0.04331,-0.0031982,0,0.010715,0,0,0,0.037925,0.013196,0.015336,6.3716,0.022152,0.023736,6.6747e-07,0.07,0.34,0
0.0042715,0.00099251,0.037567,0.012724,0.015087,0.0025922,0,0,0.032806,-0.0032662,0,0.0076553,0,0,0,0.037836,0.012454,0.015087,5.9027,0.021792,0.024175,6.9638e-07,0.08,0.34,0
0.0045649,0.0010462,0.037525,0.012116,0.014892,0.0024058,0,0,0.029422,-0.0036087,0,0.0062552,0,0,0,0.037752,0.011889,0.014892,5.3657,0.021511,0.0245,7.1706e-07,0.09,0.34,0
0.00486,0.0010942,0.037506,0.011558,0.014719,0.0022201,0,0,0.029623,-0.0041094,0,0.0057722,0,0,0,0.037695,0.011369,0.014719,4.8601,0.021261,0.024823,7.3737e-07,0.1,0.34,0
0.0051574,0.001137,0.037497,0.010942,0.014532,0.0020534,0,0,0.029855,-0.0046667,0,0.0053389,0,0,0,0.037656,0.010783,0.014532,4.4002,0.02099,0.025209,7.6169e-07,0.11,0.34,0
0.0054571,0.0011753,0.03748,0.010318,0.014339,0.0018958,0,0,0.030082,-0.0052276,0,0.0049292,0,0,0,0.037612,0.010186,0.014339,3.9777,0.020712,0.025604,7.8601e-07,0.12,0.34,0
0.005759,0.0012093,0.037445,0.0096962,0.014142,0.001741,0,0,0.030293,-0.00578,0,0.0045265,0,0,0,0.037554,0.0095867,0.014142,3.5799,0.020428,0.025992,8.0908e-07,0.13,0.34,0
0.006063,0.0012394,0.037397,0.0090829,0.013944,0.0015901,0,0,0.030489,-0.0063193,0,0.0041343,0,0,0,0.037486,0.0089932,0.013944,3.2077,0.020141,0.026369,8.3077e-07,0.14,0.34,0
0.0063688,0.0012657,0.037338,0.0084838,0.013747,0.0014464,0,0,0.030669,-0.0068416,0,0.0037605,0,0,0,0.037411,0.0084109,0.013747,2.8654,0.019856,0.026735,8.5101e-07,0.15,0.34,0
0.0066763,0.0012885,0.03727,0.0079028,0.013552,0.0013116,0,0,0.030834,-0.0073438,0,0.0034102,0,0,0,0.037329,0.0078439,0.013552,2.5548,0.019575,0.027087,8.6968e-07,0.16,0.34,0
0.0069855,0.001308,0.037194,0.0073421,0.013361,0.0011864,0,0,0.030983,-0.0078242,0,0.0030846,0,0,0,0.037241,0.0072946,0.013361,2.2745,0.019299,0.027422,8.8669e-07,0.17,0.34,0
0.007296,0.0013245,0.03711,0.0068026,0.013174,0.0010702,0,0,0.031117,-0.0082824,0,0.0027825,0,0,0,0.037148,0.0067644,0.013174,2.0217,0.019029,0.02774,9.0201e-07,0.18,0.34,0
0.0076078,0.0013383,0.037019,0.0062838,0.012991,0.0009623,0,0,0.031236,-0.008719,0,0.002502,0,0,0,0.037049,0.0062533,0.012991,1.7932,0.018764,0.028041,9.1567e-07,0.19,0.34,0
0.0079207,0.0013493,0.036922,0.0057848,0.012812,0.00086175,0,0,0.031343,-0.0091352,0,0.0022405,0,0,0,0.036946,0.0057606,0.012812,1.5855,0.018506,0.028326,9.278e-07,0.2,0.34,0
0.0082346,0.001358,0.03682,0.0053038,0.012637,0.00076776,0,0,0.031438,-0.0095333,0,0.0019962,0,0,0,0.036839,0.0052848,0.012637,1.3958,0.018254,0.028596,9.3854e-07,0.21,0.34,0
0.0085495,0.0013643,0.036715,0.0048386,0.012466,0.00067978,0,0,0.031523,-0.0099156,0,0.0017674,0,0,0,0.03673,0.0048238,0.012466,1.2221,0.018006,0.028854,9.4807e-07,0.22,0.34,0
0.0088651,0.0013684,0.036607,0.0043869,0.012298,0.00059753,0,0,0.031601,-0.010285,0,0.0015536,0,0,0,0.036618,0.0043755,0.012298,1.063,0.017764,0.029102,9.5657e-07,0.23,0.34,0
0.0091815,0.0013705,0.036498,0.0039465,0.012133,0.00052101,0,0,0.031674,-0.010643,0,0.0013546,0,0,0,0.036506,0.0039378,0.012133,0.91752,0.017526,0.029342,9.6421e-07,0.24,0.34,0
0.0094986,0.0013705,0.036387,0.0035151,0.011971,0.00045044,0,0,0.031742,-0.010992,0,0.0011712,0,0,0,0.036394,0.0035087,0.011971,0.78557,0.017291,0.029577,9.7112e-07,0.25,0.34,0
0.0098163,0.0013687,0.036276,0.0030909,0.01181,0.00038622,0,0,0.031806,-0.011335,0,0.0010042,0,0,0,0.036281,0.0030861,0.01181,0.66723,0.017059,0.029807,9.7743e-07,0.26,0.34,0
0.010135,0.0013651,0.036165,0.0026721,0.011651,0.00032887,0,0,0.031868,-0.011673,0,0.00085506,0,0,0,0.036169,0.0026686,0.011651,0.56293,0.01683,0.030034,9.832e-07,0.27,0.34,0
0.010454,0.0013598,0.036054,0.0022573,0.011493,0.000279,0,0,0.031928,-0.012007,0,0.00072539,0,0,0,0.036056,0.0022548,0.011493,0.47324,0.016601,0.030259,9.8845e-07,0.28,0.34,0
0.010773,0.0013528,0.035941,0.0018453,0.011336,0.00023729,0,0,0.031987,-0.012338,0,0.00061695,0,0,0,0.035943,0.0018434,0.011336,0.39889,0.016374,0.030483,9.9321e-07,0.29,0.34,0
0.011093,0.0013443,0.035826,0.0014348,0.011178,0.00020449,0,0,0.032042,-0.012667,0,0.00053167,0,0,0,0.035828,0.0014333,0.011178,0.34067,0.016147,0.030705,9.9743e-07,0.3,0.34,0
0.011414,0.0013344,0.035709,0.0010246,0.01102,0.0001814,0,0,0.032096,-0.012994,0,0.00047163,0,0,0,0.03571,0.0010235,0.01102,0.29949,0.015918,0.030925,1.0011e-06,0.31,0.34,0
0.011735,0.001323,0.035588,0.00061361,0.010861,0.00016888,0,0,0.032146,-0.013321,0,0.0004391,0,0,0,0.035589,0.00061258,0.010861,0.27632,0.015687,0.031144,1.004e-06,0.32,0.34,0
0.012057,0.0013101,0.035462,0.00020005,0.010699,0.0001679,0,0,0.032192,-0.013648,0,0.00043655,0,0,0,0.035463,0.00019902,0.010699,0.27224,0.015454,0.031361,1.0063e-06,0.33,0.34,0
0.012379,0.0012958,0.035329,-0.00021829,0.010533,0.00017946,0,0,0.032235,-0.013977,0,0.00046659,0,0,0,0.03533,-0.00021946,0.010533,0.28839,0.015215,0.031578,1.0077e-06,0.34,0.34,0
0.012702,0.00128,0.035189,-0.00064476,0.010363,0.00020447,0,0,0.032273,-0.01431,0,0.00053161,0,0,0,0.03519,-0.00064623,0.010363,0.32571,0.014969,0.031795,1.0084e-06,0.35,0.34,0
0.013025,0.0012624,0.035043,-0.0010845,0.010188,0.00024321,0,0,0.032312,-0.014654,0,0.00063235,0,0,0,0.035045,-0.0010865,0.010188,0.38406,0.014715,0.032019,1.0086e-06,0.36,0.34,0
0.013348,0.0012427,0.034897,-0.0015454,0.010005,0.00029347,0,0,0.032359,-0.015016,0,0.00076303,0,0,0,0.034899,-0.0015481,0.010005,0.45927,0.014452,0.032262,1.0089e-06,0.37,0.34,0
0.013672,0.00122,0.034765,-0.0020391,0.0098177,0.00034467,0,0,0.032431,-0.015414,0,0.00089614,0,0,0,0.034768,-0.0020427,0.0098177,0.53418,0.014181,0.032544,1.011e-06,0.38,0.34,0
0.013997,0.0011927,0.034676,-0.0025776,0.0096297,0.00036015,0,0,0.032561,-0.015869,0,0.0009364,0,0,0,0.03468,-0.0025813,0.0096297,0.55241,0.01391,0.032902,1.0174e-06,0.39,0.34,0
0.014323,0.0011572,0.034618,-0.0031688,0.0094347,0.00022866,0,0,0.032738,-0.016385,0,0.00059451,0,0,0,0.03462,-0.0031715,0.0094347,0.34749,0.013628,0.033328,1.027e-06,0.4,0.34,0
0.014651,0.0011056,0.034211,-0.0033831,0.0092485,-6.1546e-05,0,0,0.033063,-0.016729,0,-0.00019697,0,0,0,0.034213,-0.0033852,0.0092485,-0.10887,0.013359,0.033141,1.0103e-06,0.41,0.34,0
0.014983,0.0010342,0.033411,-0.0025234,0.0092662,-0.0003685,0,0,0.034729,-0.016842,0,-0.0012147,0,0,0,0.03342,-0.0025329,0.0092662,-0.61689,0.013384,0.031746,9.6334e-07,0.42,0.34,0
0.015343,0.00096896,0.033385,-0.0012292,0.0096467,-0.000645,0,0,0.039989,-0.018112,0,-0.0024742,0,0,0,0.033409,-0.001253,0.0096467,-1.0716,0.013934,0.030702,9.7524e-07,0.43,0.34,0
0.015788,0.00095895,0.034244,-0.00075542,0.010047,-0.00079966,0,0,0.048772,-0.02164,0,-0.0034776,0,0,0,0.034272,-0.00078402,0.010047,-1.3044,0.014512,0.03109,1.0377e-06,0.44,0.34,0
0.016337,0.0010274,0.034423,-0.00075762,0.0101,-0.0006391,0,0,0.056859,-0.025291,0,-0.0030266,0,0,0,0.034442,-0.00077618,0.0101,-1.0359,0.014589,0.031235,1.0085e-06,0.45,0.34,0
0.016942,0.0011503,0.033927,-0.00040957,0.010055,-0.00025706,0,0,0.060716,-0.026574,0,-0.0012823,0,0,0,0.033933,-0.00041609,0.010055,-0.41581,0.014524,0.030494,9.1396e-07,0.46,0.34,0
0.017556,0.0012905,0.033803,8.8693e-05,0.010167,3.1836e-05,0,0,0.061452,-0.026205,0,0.00016555,0,0,0,0.033804,8.7234e-05,0.010167,0.059514,0.014686,0.029976,8.7483e-07,0.47,0.34,0
0.018171,0.0014293,0.03397,0.00038491,0.010306,0.00014321,0,0,0.061525,-0.025796,0,0.00074468,0,0,0,0.033971,0.00038393,0.010306,0.2457,0.014887,0.029888,8.7921e-07,0.48,0.34,0
0.018787,0.001563,0.034093,0.00055727,0.010395,0.00016042,0,0,0.061615,-0.025579,0,0.00083418,0,0,0,0.034094,0.0005564,0.010395,0.27454,0.015015,0.02986,8.8379e-07,0.49,0.34,0
0.019403,0.0016904,0.034161,0.00067962,0.010452,0.00011467,0,0,0.061643,-0.025409,0,0.00059627,0,0,0,0.034162,0.00067912,0.010452,0.19628,0.015098,0.029822,8.8543e-07,0.5,0.34,0
0.020019,0.0018103,0.034192,0.00072622,0.010475,2.5967e-05,0,0,0.061663,-0.025348,0,0.00013503,0,0,0,0.034192,0.00072603,0.010475,0.044551,0.015131,0.029812,8.864e-07,0.51,0.34,0
0.020636,0.0019218,0.034212,0.00070787,0.010476,-7.7777e-05,0,0,0.061714,-0.025397,0,-0.00040444,0,0,0,0.034212,0.00070752,0.010476,-0.13279,0.015132,0.029845,8.8852e-07,0.52,0.34,0
0.021254,0.002025,0.034227,0.00064524,0.010462,-0.00017612,0,0,0.06179,-0.025523,0,-0.00091585,0,0,0,0.034228,0.00064419,0.010462,-0.30023,0.015111,0.029909,8.9164e-07,0.53,0.34,0
0.021872,0.0021203,0.034236,0.00055642,0.010438,-0.00026004,0,0,0.061875,-0.025691,0,-0.0013522,0,0,0,0.034238,0.00055433,0.010438,-0.44214,0.015077,0.029989,8.9504e-07,0.54,0.34,0
0.022491,0.0022086,0.034235,0.00045396,0.010407,-0.00032713,0,0,0.061954,-0.025877,0,-0.0017011,0,0,0,0.034238,0.00045075,0.010407,-0.55465,0.015032,0.030072,8.9814e-07,0.55,0.34,0
0.023111,0.0022906,0.034225,0.00034645,0.010371,-0.00037801,0,0,0.062019,-0.026065,0,-0.0019656,0,0,0,0.034229,0.0003422,0.010371,-0.63915,0.014981,0.030151,9.006e-07,0.56,0.34,0
0.023732,0.002367,0.034205,0.00023973,0.010334,-0.00041449,0,0,0.062067,-0.026244,0,-0.0021554,0,0,0,0.034211,0.00023465,0.010334,-0.69911,0.014926,0.03022,9.0223e-07,0.57,0.34,0
0.024352,0.0024385,0.034177,0.00013767,0.010294,-0.00043884,0,0,0.062095,-0.026408,0,-0.002282,0,0,0,0.034183,0.00013199,0.010294,-0.73862,0.01487,0.030277,9.0298e-07,0.58,0.34,0
0.024973,0.0025057,0.034141,4.261e-05,0.010255,-0.00045337,0,0,0.062104,-0.026552,0,-0.0023575,0,0,0,0.034147,3.6555e-05,0.010255,-0.76179,0.014813,0.030321,9.0287e-07,0.59,0.34,0
0.025595,0.0025691,0.034098,-4.4173e-05,0.010216,-0.00046023,0,0,0.062094,-0.026677,0,-0.0023932,0,0,0,0.034105,-5.0411e-05,0.010216,-0.77233,0.014757,0.030353,9.0197e-07,0.6,0.34,0
0.026215,0.0026291,0.034051,-0.00012218,0.010179,-0.00046131,0,0,0.062067,-0.026782,0,-0.0023988,0,0,0,0.034057,-0.00012845,0.010179,-0.7735,0.014702,0.030373,9.0037e-07,0.61,0.34,0
0.026836,0.0026859,0.033998,-0.00019145,0.010142,-0.00045823,0,0,0.062026,-0.026867,0,-0.0023828,0,0,0,0.034005,-0.00019764,0.010142,-0.76796,0.01465,0.030382,8.9817e-07,0.62,0.34,0
0.027456,0.00274,0.033943,-0.00025234,0.010107,-0.00045229,0,0,0.061974,-0.026935,0,-0.0023519,0,0,0,0.033949,-0.00025837,0.010107,-0.75788,0.014599,0.030381,8.9548e-07,0.63,0.34,0
0.028075,0.0027916,0.033886,-0.00030545,0.010074,-0.00044453,0,0,0.061911,-0.026987,0,-0.0023115,0,0,0,0.033892,-0.00031128,0.010074,-0.74497,0.014552,0.030373,8.9242e-07,0.64,0.34,0
0.028694,0.0028407,0.033828,-0.00035148,0.010043,-0.00043574,0,0,0.061841,-0.027025,0,-0.0022658,0,0,0,0.033833,-0.00035709,0.010043,-0.73051,0.014506,0.030357,8.8906e-07,0.65,0.34,0
0.029312,0.0028876,0.033769,-0.0003912,0.010013,-0.00042652,0,0,0.061765,-0.027052,0,-0.0022179,0,0,0,0.033774,-0.00039658,0.010013,-0.71545,0.014464,0.030337,8.8552e-07,0.66,0.34,0
0.029929,0.0029324,0.033711,-0.00042539,0.0099856,-0.00041728,0,0,0.061686,-0.027069,0,-0.0021699,0,0,0,0.033716,-0.00043055,0.0099856,-0.70044,0.014424,0.030312,8.8186e-07,0.67,0.34,0
0.030546,0.0029751,0.033654,-0.0004548,0.0099596,-0.00040829,0,0,0.061604,-0.027077,0,-0.0021231,0,0,0,0.033658,-0.00045974,0.0099596,-0.68591,0.014386,0.030284,8.7815e-07,0.68,0.34,0
0.031161,0.0030159,0.033598,-0.00048015,0.0099352,-0.00039971,0,0,0.061522,-0.02708,0,-0.0020785,0,0,0,0.033602,-0.00048488,0.0099352,-0.67209,0.014351,0.030254,8.7446e-07,0.69,0.34,0
0.031776,0.0030548,0.033544,-0.00050206,0.0099124,-0.00039159,0,0,0.061441,-0.027078,0,-0.0020363,0,0,0,0.033548,-0.00050661,0.0099124,-0.65906,0.014318,0.030224,8.7083e-07,0.7,0.34,0
0.03239,0.0030918,0.033492,-0.00052114,0.0098911,-0.00038393,0,0,0.061361,-0.027072,0,-0.0019964,0,0,0,0.033496,-0.00052552,0.0098911,-0.64679,0.014287,0.030192,8.673e-07,0.71,0.34,0
0.033004,0.003127,0.033442,-0.0005379,0.0098712,-0.00037668,0,0,0.061284,-0.027064,0,-0.0019587,0,0,0,0.033446,-0.00054211,0.0098712,-0.63518,0.014258,0.030161,8.6389e-07,0.72,0.34,0
0.033616,0.0031604,0.033395,-0.00055277,0.0098527,-0.00036973,0,0,0.06121,-0.027054,0,-0.0019226,0,0,0,0.033399,-0.00055683,0.0098527,-0.62404,0.014232,0.030131,8.6065e-07,0.73,0.34,0
0.034228,0.0031922,0.033351,-0.00056615,0.0098353,-0.00036296,0,0,0.06114,-0.027044,0,-0.0018874,0,0,0,0.033354,-0.00057006,0.0098353,-0.61318,0.014207,0.030102,8.5757e-07,0.74,0.34,0
0.034839,0.0032222,0.033309,-0.00057835,0.0098191,-0.00035625,0,0,0.061073,-0.027033,0,-0.0018525,0,0,0,0.033313,-0.00058212,0.0098191,-0.60237,0.014183,0.030075,8.5467e-07,0.75,0.34,0
0.035449,0.0032507,0.03327,-0.00058962,0.009804,-0.00034947,0,0,0.061011,-0.027023,0,-0.0018172,0,0,0,0.033273,-0.00059325,0.009804,-0.59137,0.014161,0.030049,8.5196e-07,0.76,0.34,0
0.036059,0.0032775,0.033233,-0.00060018,0.0097899,-0.00034246,0,0,0.060953,-0.027014,0,-0.0017808,0,0,0,0.033237,-0.00060366,0.0097899,-0.57996,0.014141,0.030025,8.4944e-07,0.77,0.34,0
0.036668,0.0033027,0.033199,-0.00061019,0.0097768,-0.00033512,0,0,0.060899,-0.027006,0,-0.0017426,0,0,0,0.033203,-0.00061353,0.0097768,-0.56792,0.014122,0.030002,8.4711e-07,0.78,0.34,0
0.037277,0.0033264,0.033168,-0.00061977,0.0097645,-0.00032731,0,0,0.06085,-0.026999,0,-0.001702,0,0,0,0.033171,-0.00062295,0.0097645,-0.55505,0.014104,0.029982,8.4497e-07,0.79,0.34,0
0.037885,0.0033487,0.033139,-0.00062901,0.0097531,-0.00031895,0,0,0.060804,-0.026994,0,-0.0016585,0,0,0,0.033142,-0.00063204,0.0097531,-0.54118,0.014088,0.029964,8.43e-07,0.8,0.34,0
0.038493,0.0033694,0.033113,-0.00063797,0.0097425,-0.00030994,0,0,0.060763,-0.026989,0,-0.0016117,0,0,0,0.033116,-0.00064083,0.0097425,-0.52617,0.014072,0.029947,8.4121e-07,0.81,0.34,0
0.0391,0.0033888,0.033089,-0.00064668,0.0097326,-0.00030021,0,0,0.060726,-0.026986,0,-0.0015611,0,0,0,0.033091,-0.00064937,0.0097326,-0.50988,0.014058,0.029932,8.3958e-07,0.82,0.34,0
0.039708,0.0034069,0.033067,-0.00065516,0.0097234,-0.0002897,0,0,0.060692,-0.026984,0,-0.0015064,0,0,0,0.033069,-0.00065766,0.0097234,-0.49223,0.014045,0.029919,8.3811e-07,0.83,0.34,0
0.040314,0.0034236,0.033046,-0.00066341,0.0097149,-0.00027837,0,0,0.060662,-0.026984,0,-0.0014475,0,0,0,0.033049,-0.00066572,0.0097149,-0.47315,0.014033,0.029907,8.3678e-07,0.84,0.34,0
0.040921,0.0034391,0.033028,-0.00067141,0.009707,-0.0002662,0,0,0.060635,-0.026984,0,-0.0013843,0,0,0,0.03303,-0.00067352,0.009707,-0.4526,0.014021,0.029897,8.3559e-07,0.85,0.34,0
0.041527,0.0034533,0.033012,-0.00067913,0.0096998,-0.00025318,0,0,0.060611,-0.026985,0,-0.0013165,0,0,0,0.033014,-0.00068104,0.0096998,-0.43057,0.014011,0.029888,8.3453e-07,0.86,0.34,0
0.042133,0.0034664,0.032997,-0.00068654,0.0096931,-0.0002393,0,0,0.06059,-0.026987,0,-0.0012444,0,0,0,0.032999,-0.00068825,0.0096931,-0.40706,0.014001,0.029881,8.3358e-07,0.87,0.34,0
0.042739,0.0034783,0.032984,-0.00069362,0.009687,-0.00022458,0,0,0.060571,-0.02699,0,-0.0011678,0,0,0,0.032985,-0.00069512,0.009687,-0.3821,0.013992,0.029874,8.3274e-07,0.88,0.34,0
0.043344,0.0034891,0.032972,-0.00070031,0.0096815,-0.00020906,0,0,0.060555,-0.026993,0,-0.0010871,0,0,0,0.032973,-0.00070161,0.0096815,-0.35574,0.013984,0.029869,8.32e-07,0.89,0.34,0
0.04395,0.0034989,0.032961,-0.00070658,0.0096764,-0.00019275,0,0,0.060541,-0.026996,0,-0.0010023,0,0,0,0.032962,-0.00070769,0.0096764,-0.32803,0.013977,0.029864,8.3135e-07,0.9,0.34,0
0.044555,0.0035076,0.032952,-0.0007124,0.0096719,-0.00017571,0,0,0.060529,-0.026999,0,-0.00091371,0,0,0,0.032953,-0.00071332,0.0096719,-0.29907,0.013971,0.02986,8.3079e-07,0.91,0.34,0
0.045161,0.0035153,0.032944,-0.00071771,0.0096679,-0.000158,0,0,0.060518,-0.027003,0,-0.00082159,0,0,0,0.032945,-0.00071846,0.0096679,-0.26894,0.013965,0.029857,8.303e-07,0.92,0.34,0
0.045766,0.003522,0.032937,-0.00072249,0.0096644,-0.00013966,0,0,0.060509,-0.027006,0,-0.00072625,0,0,0,0.032938,-0.00072308,0.0096644,-0.23775,0.01396,0.029855,8.2989e-07,0.93,0.34,0
0.046371,0.0035278,0.032931,-0.00072671,0.0096614,-0.00012077,0,0,0.060502,-0.027009,0,-0.00062803,0,0,0,0.032932,-0.00072715,0.0096614,-0.20561,0.013955,0.029853,8.2954e-07,0.94,0.34,0
0.046976,0.0035326,0.032926,-0.00073033,0.0096588,-0.0001014,0,0,0.060496,-0.027012,0,-0.00052729,0,0,0,0.032927,-0.00073064,0.0096588,-0.17263,0.013952,0.029851,8.2925e-07,0.95,0.34,0
0.047581,0.0035366,0.032923,-0.00073332,0.0096568,-8.1621e-05,0,0,0.060491,-0.027014,0,-0.00042443,0,0,0,0.032923,-0.00073353,0.0096568,-0.13896,0.013949,0.02985,8.2902e-07,0.96,0.34,0
0.048185,0.0035396,0.032919,-0.00073568,0.0096551,-6.1509e-05,0,0,0.060487,-0.027016,0,-0.00031984,0,0,0,0.03292,-0.00073579,0.0096551,-0.10472,0.013946,0.029849,8.2885e-07,0.97,0.34,0
0.04879,0.0035418,0.032917,-0.00073737,0.009654,-4.1146e-05,0,0,0.060485,-0.027018,0,-0.00021396,0,0,0,0.032917,-0.00073742,0.009654,-0.070054,0.013945,0.029848,8.2872e-07,0.98,0.34,0
0.049395,0.0035431,0.032916,-0.00073839,0.0096533,-1.8542e-05,0,0,0.060483,-0.027018,0,-9.6416e-05,0,0,0,0.032916,-0.00073841,0.0096533,-0.031569,0.013944,0.029848,8.2865e-07,0.99,0.34,0
0.049698,0.0035435,0.032916,-0.00073873,0.0096531,-6.171e-06,0,0,0.060483,-0.027019,0,-3.2089e-05,0,0,0,0.032916,-0.00073874,0.0096531,-0.010507,0.013943,0.029848,8.2862e-07,1,0.34,0
0.00027623,5.7781e-05,0.037145,0.015571,0.015815,0.002229,0,0,0.055459,-0.00063323,0,0.011591,0,0,0,0.037375,0.015342,0.015815,5.8367,0.022844,0.021801,5.3124e-07,0,0.35,0
0.00055459,0.00011658,0.037184,0.015272,0.015737,0.002248,0,0,0.055763,-0.0012088,0,0.01169,0,0,0,0.037414,0.015042,0.015737,5.7971,0.022731,0.022034,5.4755e-07,0.01,0.35,0
0.0011153,0.00023632,0.037333,0.014766,0.01563,0.0023037,0,0,0.056429,-0.0022457,0,0.011979,0,0,0,0.037567,0.014532,0.01563,5.7685,0.022576,0.022507,5.81e-07,0.02,0.35,0
0.0016832,0.00036059,0.03754,0.014412,0.015586,0.0023912,0,0,0.057082,-0.0030513,0,0.012434,0,0,0,0.037786,0.014167,0.015586,5.8402,0.022513,0.022943,6.1237e-07,0.03,0.35,0
0.0022569,0.00048995,0.037709,0.01418,0.015567,0.0025111,0,0,0.05757,-0.0036051,0,0.013058,0,0,0,0.037975,0.013914,0.015567,6.0237,0.022485,0.023279,6.3696e-07,0.04,0.35,0
0.0028346,0.00062472,0.037809,0.014093,0.015571,0.002659,0,0,0.057819,-0.0038417,0,0.013827,0,0,0,0.038104,0.013798,0.015571,6.3201,0.022491,0.02347,6.5133e-07,0.05,0.35,0
0.0034133,0.00076352,0.037834,0.013986,0.015546,0.0027888,0,0,0.054278,-0.0036644,0,0.013599,0,0,0,0.038157,0.013664,0.015546,6.5852,0.022455,0.02361,6.6135e-07,0.06,0.35,0
0.0039201,0.00088337,0.037824,0.013578,0.01542,0.0027984,0,0,0.043566,-0.0032604,0,0.011023,0,0,0,0.038144,0.013258,0.01542,6.5085,0.022274,0.023882,6.7985e-07,0.07,0.35,0
0.0042846,0.00096041,0.037779,0.012947,0.015218,0.0026421,0,0,0.032936,-0.0031483,0,0.0078278,0,0,0,0.038059,0.012667,0.015218,6.015,0.021981,0.02422,7.0216e-07,0.08,0.35,0
0.0045788,0.0010107,0.037713,0.012317,0.015009,0.0024229,0,0,0.029515,-0.0035,0,0.0062995,0,0,0,0.037943,0.012086,0.015009,5.4062,0.02168,0.024528,7.2157e-07,0.09,0.35,0
0.0048749,0.0010536,0.037674,0.011707,0.014814,0.0022405,0,0,0.029718,-0.0040392,0,0.0058253,0,0,0,0.037867,0.011515,0.014814,4.8998,0.021399,0.024868,7.4306e-07,0.1,0.35,0
0.0051732,0.0010908,0.037642,0.011095,0.014621,0.0020903,0,0,0.029927,-0.0045835,0,0.0054348,0,0,0,0.037806,0.010931,0.014621,4.4786,0.021119,0.025234,7.6593e-07,0.11,0.35,0
0.0054734,0.0011235,0.037586,0.010477,0.014419,0.0019437,0,0,0.030117,-0.0051245,0,0.0050537,0,0,0,0.037725,0.010338,0.014419,4.084,0.020827,0.025593,7.8751e-07,0.12,0.35,0
0.0057755,0.0011521,0.037521,0.0098515,0.014212,0.0017951,0,0,0.030302,-0.0056684,0,0.0046673,0,0,0,0.037638,0.0097349,0.014212,3.7002,0.020528,0.025957,8.0866e-07,0.13,0.35,0
0.0060795,0.0011767,0.037455,0.0092298,0.014005,0.0016504,0,0,0.030484,-0.0062083,0,0.0042911,0,0,0,0.037552,0.009133,0.014005,3.3384,0.02023,0.026324,8.2949e-07,0.14,0.35,0
0.0063852,0.0011978,0.037386,0.0086207,0.013802,0.0015138,0,0,0.030659,-0.0067357,0,0.0039358,0,0,0,0.037466,0.0085407,0.013802,3.007,0.019936,0.026687,8.4951e-07,0.15,0.35,0
0.0066927,0.0012155,0.037312,0.0080295,0.013602,0.0013866,0,0,0.030822,-0.0072447,0,0.0036052,0,0,0,0.037378,0.0079635,0.013602,2.7076,0.019648,0.02704,8.6824e-07,0.16,0.35,0
0.0070017,0.0012302,0.037231,0.0074592,0.013407,0.0012689,0,0,0.030971,-0.0077322,0,0.0032992,0,0,0,0.037285,0.0074048,0.013407,2.4383,0.019366,0.027378,8.8542e-07,0.17,0.35,0
0.0073121,0.0012421,0.037144,0.0069112,0.013216,0.0011598,0,0,0.031105,-0.0081969,0,0.0030154,0,0,0,0.037189,0.0068664,0.013216,2.1955,0.01909,0.027699,9.0092e-07,0.18,0.35,0
0.0076238,0.0012515,0.03705,0.0063852,0.013031,0.001058,0,0,0.031226,-0.0086392,0,0.0027507,0,0,0,0.037087,0.0063484,0.013031,1.9752,0.018822,0.028003,9.1478e-07,0.19,0.35,0
0.0079366,0.0012584,0.036952,0.00588,0.01285,0.00096234,0,0,0.031333,-0.0090605,0,0.0025021,0,0,0,0.036982,0.0058499,0.01285,1.7736,0.018561,0.02829,9.2708e-07,0.2,0.35,0
0.0082504,0.001263,0.03685,0.0053935,0.012673,0.00087198,0,0,0.03143,-0.0094634,0,0.0022672,0,0,0,0.036874,0.005369,0.012673,1.5878,0.018306,0.028563,9.3803e-07,0.21,0.35,0
0.0085652,0.0012655,0.036745,0.0049232,0.012501,0.00078636,0,0,0.031518,-0.0098505,0,0.0020445,0,0,0,0.036765,0.0049035,0.012501,1.4157,0.018056,0.028824,9.4781e-07,0.22,0.35,0
0.0088808,0.0012659,0.036639,0.0044665,0.012332,0.00070533,0,0,0.0316,-0.010225,0,0.0018339,0,0,0,0.036655,0.0044508,0.012332,1.2562,0.017813,0.029077,9.5667e-07,0.23,0.35,0
0.0091972,0.0012643,0.036533,0.0040207,0.012166,0.00062911,0,0,0.031677,-0.010589,0,0.0016357,0,0,0,0.036546,0.0040083,0.012166,1.1089,0.017573,0.029323,9.6479e-07,0.24,0.35,0
0.0095143,0.0012608,0.036428,0.0035836,0.012003,0.0005582,0,0,0.031752,-0.010946,0,0.0014513,0,0,0,0.036438,0.0035739,0.012003,0.97409,0.017338,0.029565,9.7233e-07,0.25,0.35,0
0.0098322,0.0012555,0.036324,0.003153,0.011843,0.00049325,0,0,0.031825,-0.011297,0,0.0012824,0,0,0,0.036331,0.0031454,0.011843,0.85232,0.017107,0.029805,9.7945e-07,0.26,0.35,0
0.010151,0.0012485,0.036221,0.0027272,0.011685,0.00043505,0,0,0.031898,-0.011645,0,0.0011311,0,0,0,0.036227,0.0027213,0.011685,0.74451,0.016878,0.030045,9.8622e-07,0.27,0.35,0
0.01047,0.0012398,0.036121,0.0023046,0.011528,0.00038447,0,0,0.031971,-0.01199,0,0.00099962,0,0,0,0.036126,0.0023001,0.011528,0.65165,0.016651,0.030285,9.9272e-07,0.28,0.35,0
0.01079,0.0012295,0.036022,0.001884,0.011372,0.00034238,0,0,0.032046,-0.012334,0,0.00089019,0,0,0,0.036026,0.0018804,0.011372,0.57477,0.016426,0.030528,9.9899e-07,0.29,0.35,0
0.011111,0.0012176,0.035926,0.0014643,0.011217,0.0003097,0,0,0.032121,-0.012679,0,0.00080521,0,0,0,0.035929,0.0014613,0.011217,0.51492,0.016202,0.030772,1.0051e-06,0.3,0.35,0
0.011433,0.0012043,0.035831,0.0010442,0.011063,0.0002873,0,0,0.032199,-0.013024,0,0.00074698,0,0,0,0.035833,0.0010416,0.011063,0.47307,0.015979,0.03102,1.011e-06,0.31,0.35,0
0.011755,0.0011895,0.035738,0.00062247,0.010908,0.00027604,0,0,0.032279,-0.013371,0,0.00071772,0,0,0,0.03574,0.00062018,0.010908,0.45012,0.015756,0.031272,1.0167e-06,0.32,0.35,0
0.012078,0.0011733,0.035648,0.00019773,0.010754,0.00027664,0,0,0.032362,-0.013723,0,0.00071927,0,0,0,0.03565,0.00019546,0.010754,0.44666,0.015533,0.031531,1.0224e-06,0.33,0.35,0
0.012402,0.0011556,0.035562,-0.00023196,0.010599,0.00028947,0,0,0.032452,-0.01408,0,0.00075262,0,0,0,0.035565,-0.0002344,0.010599,0.46272,0.01531,0.031798,1.0283e-06,0.34,0.35,0
0.012727,0.0011362,0.035485,-0.00066913,0.010445,0.00031402,0,0,0.032552,-0.014448,0,0.00081646,0,0,0,0.035488,-0.00067195,0.010445,0.49687,0.015087,0.03208,1.0348e-06,0.35,0.35,0
0.013053,0.001115,0.035422,-0.001117,0.010292,0.0003477,0,0,0.03267,-0.014831,0,0.00090401,0,0,0,0.035426,-0.0011204,0.010292,0.54437,0.014866,0.032385,1.0425e-06,0.36,0.35,0
0.013381,0.0010913,0.035388,-0.0015788,0.010143,0.00038283,0,0,0.032819,-0.015238,0,0.00099536,0,0,0,0.035392,-0.0015828,0.010143,0.59276,0.014651,0.032728,1.0526e-06,0.37,0.35,0
0.01371,0.0010643,0.035402,-0.002055,0.010004,0.00040033,0,0,0.033017,-0.015677,0,0.0010409,0,0,0,0.035406,-0.0020594,0.010004,0.61263,0.01445,0.033125,1.0669e-06,0.38,0.35,0
0.014041,0.0010322,0.035479,-0.0025333,0.0098838,0.00035781,0,0,0.033274,-0.016142,0,0.00093031,0,0,0,0.035483,-0.002537,0.0098838,0.54138,0.014277,0.033579,1.0864e-06,0.39,0.35,0
0.014375,0.00099193,0.035587,-0.0029483,0.0097916,0.00019227,0,0,0.033534,-0.016562,0,0.00049991,0,0,0,0.035589,-0.0029503,0.0097916,0.28912,0.014143,0.034009,1.1065e-06,0.4,0.35,0
0.014712,0.00093917,0.035654,-0.0029828,0.0098012,-8.722e-05,0,0,0.033608,-0.016619,0,-0.00022677,0,0,0,0.035655,-0.0029845,0.0098012,-0.12999,0.014157,0.034096,1.1135e-06,0.41,0.35,0
0.015047,0.00087252,0.035357,-0.0022894,0.0099204,-0.00026673,0,0,0.033711,-0.01615,0,-0.00072738,0,0,0,0.03536,-0.0022921,0.0099204,-0.41316,0.014329,0.033273,1.0816e-06,0.42,0.35,0
0.015384,0.00080167,0.034662,-0.0012927,0.010011,-0.00023876,0,0,0.035556,-0.016207,0,-0.00079082,0,0,0,0.034667,-0.0012979,0.010011,-0.38911,0.01446,0.031855,1.0361e-06,0.43,0.35,0
0.015754,0.00075636,0.034735,-0.00085247,0.010165,-0.00026623,0,0,0.041512,-0.018504,0,-0.0011861,0,0,0,0.034746,-0.00086401,0.010165,-0.41875,0.014682,0.031576,1.0828e-06,0.44,0.35,0
0.016218,0.00077894,0.035668,-0.00093302,0.010421,-0.00045709,0,0,0.050836,-0.022714,0,-0.0020849,0,0,0,0.035685,-0.00094934,0.010421,-0.67982,0.015052,0.032478,1.1804e-06,0.45,0.35,0
0.016788,0.00088171,0.035734,-0.00072186,0.010504,-0.00043506,0,0,0.058806,-0.025982,0,-0.0019242,0,0,0,0.035746,-0.00073412,0.010504,-0.63861,0.015172,0.032361,1.138e-06,0.46,0.35,0
0.017409,0.0010253,0.034956,-0.00012346,0.01045,-0.00010589,0,0,0.062255,-0.026784,0,-0.00041531,0,0,0,0.03496,-0.00012778,0.01045,-0.14773,0.015094,0.031176,9.9796e-07,0.47,0.35,0
0.018037,0.0011694,0.034565,0.00033335,0.010469,0.00012451,0,0,0.062648,-0.026354,0,0.00064745,0,0,0,0.034566,0.0003324,0.010469,0.20609,0.015123,0.030458,9.2881e-07,0.48,0.35,0
0.018662,0.0013061,0.034514,0.00060204,0.010535,0.00015982,0,0,0.062346,-0.025825,0,0.00083105,0,0,0,0.034515,0.00060114,0.010535,0.26933,0.015217,0.030198,9.16e-07,0.49,0.35,0
0.019284,0.0014361,0.034469,0.00078496,0.010576,0.00011423,0,0,0.062121,-0.025457,0,0.00059399,0,0,0,0.03447,0.00078442,0.010576,0.19378,0.015277,0.030012,9.0663e-07,0.5,0.35,0
0.019905,0.0015569,0.034447,0.00084381,0.010587,1.4192e-05,0,0,0.062035,-0.025333,0,7.3797e-05,0,0,0,0.034447,0.00084361,0.010587,0.024171,0.015293,0.029945,9.0301e-07,0.51,0.35,0
0.020525,0.001668,0.034447,0.00081371,0.010578,-9.2809e-05,0,0,0.062058,-0.025387,0,-0.0004826,0,0,0,0.034447,0.0008133,0.010578,-0.15788,0.015279,0.029969,9.0392e-07,0.52,0.35,0
0.021146,0.0017698,0.034454,0.00073358,0.010556,-0.00018624,0,0,0.062134,-0.025539,0,-0.00096843,0,0,0,0.034455,0.00073245,0.010556,-0.31618,0.015248,0.030041,9.0702e-07,0.53,0.35,0
0.021767,0.0018633,0.034457,0.00062663,0.010525,-0.00026118,0,0,0.062224,-0.025736,0,-0.0013581,0,0,0,0.03446,0.00062455,0.010525,-0.44212,0.015203,0.03013,9.1059e-07,0.54,0.35,0
0.02239,0.0019496,0.034451,0.00050696,0.010487,-0.00031805,0,0,0.062306,-0.025949,0,-0.0016539,0,0,0,0.034454,0.00050394,0.010487,-0.53672,0.015149,0.030222,9.1377e-07,0.55,0.35,0
0.023014,0.0020296,0.034435,0.00038418,0.010446,-0.00035876,0,0,0.062372,-0.02616,0,-0.0018656,0,0,0,0.034439,0.00038037,0.010446,-0.60362,0.015088,0.030306,9.1616e-07,0.56,0.35,0
0.023638,0.0021041,0.034408,0.00026464,0.010402,-0.00038577,0,0,0.062416,-0.026357,0,-0.002006,0,0,0,0.034413,0.00026026,0.010402,-0.64736,0.015025,0.030379,9.176e-07,0.57,0.35,0
0.024262,0.0021739,0.034372,0.00015229,0.010357,-0.00040168,0,0,0.062439,-0.026533,0,-0.0020888,0,0,0,0.034377,0.00014754,0.010357,-0.67261,0.014961,0.030437,9.1803e-07,0.58,0.35,0
0.024886,0.0022396,0.034328,4.9283e-05,0.010313,-0.00040901,0,0,0.062439,-0.026686,0,-0.0021269,0,0,0,0.034333,4.4366e-05,0.010313,-0.68373,0.014897,0.030481,9.1751e-07,0.59,0.35,0
0.025511,0.0023017,0.034278,-4.34e-05,0.01027,-0.00040998,0,0,0.06242,-0.026816,0,-0.0021319,0,0,0,0.034283,-4.8344e-05,0.01027,-0.68453,0.014835,0.03051,9.1611e-07,0.6,0.35,0
0.026135,0.0023606,0.034222,-0.00012559,0.010229,-0.00040646,0,0,0.062382,-0.026922,0,-0.0021136,0,0,0,0.034227,-0.00013046,0.010229,-0.67815,0.014775,0.030526,9.1397e-07,0.61,0.35,0
0.026758,0.0024166,0.034162,-0.00019765,0.010189,-0.00039999,0,0,0.062329,-0.027006,0,-0.0020799,0,0,0,0.034167,-0.00020236,0.010189,-0.66713,0.014718,0.03053,9.112e-07,0.62,0.35,0
0.027381,0.00247,0.0341,-0.00026023,0.010152,-0.00039178,0,0,0.062264,-0.027071,0,-0.0020373,0,0,0,0.034104,-0.00026476,0.010152,-0.65344,0.014664,0.030524,9.0794e-07,0.63,0.35,0
0.028004,0.002521,0.034035,-0.00031419,0.010116,-0.00038275,0,0,0.062189,-0.027119,0,-0.0019903,0,0,0,0.03404,-0.00031852,0.010116,-0.63858,0.014613,0.03051,9.043e-07,0.64,0.35,0
0.028625,0.0025698,0.03397,-0.00036046,0.010083,-0.00037358,0,0,0.062107,-0.027153,0,-0.0019426,0,0,0,0.033975,-0.00036459,0.010083,-0.6236,0.014564,0.030489,9.0041e-07,0.65,0.35,0
0.029246,0.0026165,0.033906,-0.0004,0.010052,-0.00036472,0,0,0.06202,-0.027174,0,-0.0018965,0,0,0,0.03391,-0.00040395,0.010052,-0.60926,0.014519,0.030463,8.9635e-07,0.66,0.35,0
0.029866,0.0026611,0.033842,-0.00043375,0.010022,-0.00035648,0,0,0.06193,-0.027186,0,-0.0018537,0,0,0,0.033846,-0.00043752,0.010022,-0.59601,0.014477,0.030433,8.9221e-07,0.67,0.35,0
0.030484,0.0027038,0.033779,-0.00046256,0.0099951,-0.00034901,0,0,0.061839,-0.02719,0,-0.0018149,0,0,0,0.033783,-0.00046618,0.0099951,-0.5841,0.014437,0.0304,8.8807e-07,0.68,0.35,0
0.031102,0.0027445,0.033719,-0.00048726,0.0099695,-0.00034238,0,0,0.061749,-0.027188,0,-0.0017804,0,0,0,0.033722,-0.00049074,0.0099695,-0.57358,0.0144,0.030366,8.8398e-07,0.69,0.35,0
0.031719,0.0027834,0.033661,-0.00050856,0.0099457,-0.00033654,0,0,0.061659,-0.027181,0,-0.00175,0,0,0,0.033664,-0.00051192,0.0099457,-0.5644,0.014366,0.030331,8.8e-07,0.7,0.35,0
0.032335,0.0028205,0.033605,-0.0005271,0.0099235,-0.0003314,0,0,0.061573,-0.027171,0,-0.0017233,0,0,0,0.033609,-0.00053036,0.0099235,-0.55638,0.014334,0.030296,8.7615e-07,0.71,0.35,0
0.032951,0.0028558,0.033553,-0.00054343,0.0099028,-0.00032684,0,0,0.06149,-0.02716,0,-0.0016996,0,0,0,0.033556,-0.00054661,0.0099028,-0.5493,0.014304,0.030262,8.7248e-07,0.72,0.35,0
0.033565,0.0028894,0.033503,-0.00055803,0.0098834,-0.0003227,0,0,0.06141,-0.027148,0,-0.001678,0,0,0,0.033506,-0.00056112,0.0098834,-0.54289,0.014276,0.03023,8.69e-07,0.73,0.35,0
0.034179,0.0029213,0.033456,-0.00057128,0.0098654,-0.0003188,0,0,0.061336,-0.027135,0,-0.0016577,0,0,0,0.033459,-0.0005743,0.0098654,-0.53685,0.01425,0.030199,8.6573e-07,0.74,0.35,0
0.034792,0.0029514,0.033412,-0.0005835,0.0098486,-0.00031496,0,0,0.061266,-0.027124,0,-0.0016378,0,0,0,0.033415,-0.00058645,0.0098486,-0.53087,0.014226,0.03017,8.6267e-07,0.75,0.35,0
0.035404,0.0029799,0.033372,-0.00059496,0.009833,-0.00031102,0,0,0.0612,-0.027113,0,-0.0016173,0,0,0,0.033374,-0.00059783,0.009833,-0.52467,0.014203,0.030142,8.5983e-07,0.76,0.35,0
0.036016,0.0030068,0.033334,-0.00060585,0.0098184,-0.0003068,0,0,0.06114,-0.027103,0,-0.0015954,0,0,0,0.033337,-0.00060864,0.0098184,-0.51796,0.014182,0.030117,8.572e-07,0.77,0.35,0
0.036627,0.0030322,0.033299,-0.00061632,0.0098048,-0.00030216,0,0,0.061085,-0.027095,0,-0.0015712,0,0,0,0.033302,-0.00061903,0.0098048,-0.51049,0.014162,0.030095,8.5479e-07,0.78,0.35,0
0.037238,0.003056,0.033267,-0.00062648,0.0097921,-0.00029696,0,0,0.061034,-0.027088,0,-0.0015442,0,0,0,0.033269,-0.0006291,0.0097921,-0.50203,0.014144,0.030074,8.5258e-07,0.79,0.35,0
0.037848,0.0030782,0.033237,-0.0006364,0.0097802,-0.00029109,0,0,0.060988,-0.027083,0,-0.0015137,0,0,0,0.03324,-0.00063891,0.0097802,-0.49238,0.014127,0.030055,8.5057e-07,0.8,0.35,0
0.038457,0.0030991,0.03321,-0.00064612,0.0097692,-0.00028444,0,0,0.060946,-0.02708,0,-0.0014791,0,0,0,0.033212,-0.00064852,0.0097692,-0.48139,0.014111,0.030039,8.4875e-07,0.81,0.35,0
0.039067,0.0031185,0.033185,-0.00065566,0.0097589,-0.00027695,0,0,0.060909,-0.027078,0,-0.0014401,0,0,0,0.033188,-0.00065794,0.0097589,-0.46892,0.014096,0.030025,8.4711e-07,0.82,0.35,0
0.039676,0.0031366,0.033163,-0.00066502,0.0097494,-0.00026855,0,0,0.060875,-0.027077,0,-0.0013965,0,0,0,0.033165,-0.00066716,0.0097494,-0.45487,0.014082,0.030012,8.4563e-07,0.83,0.35,0
0.040284,0.0031533,0.033143,-0.00067417,0.0097405,-0.0002592,0,0,0.060845,-0.027078,0,-0.0013479,0,0,0,0.033145,-0.00067616,0.0097405,-0.43918,0.01407,0.030001,8.443e-07,0.84,0.35,0
0.040893,0.0031688,0.033124,-0.00068309,0.0097324,-0.00024889,0,0,0.060819,-0.02708,0,-0.0012942,0,0,0,0.033126,-0.00068493,0.0097324,-0.42182,0.014058,0.029991,8.4312e-07,0.85,0.35,0
0.041501,0.003183,0.033108,-0.00069173,0.0097248,-0.00023759,0,0,0.060796,-0.027083,0,-0.0012355,0,0,0,0.033109,-0.00069341,0.0097248,-0.40277,0.014047,0.029983,8.4207e-07,0.86,0.35,0
0.042108,0.003196,0.033093,-0.00070006,0.0097178,-0.00022533,0,0,0.060775,-0.027087,0,-0.0011717,0,0,0,0.033094,-0.00070156,0.0097178,-0.38206,0.014037,0.029977,8.4114e-07,0.87,0.35,0
0.042716,0.0032079,0.03308,-0.00070802,0.0097115,-0.00021211,0,0,0.060757,-0.027091,0,-0.001103,0,0,0,0.033081,-0.00070935,0.0097115,-0.35971,0.014028,0.029971,8.4032e-07,0.88,0.35,0
0.043324,0.0032187,0.033068,-0.00071556,0.0097057,-0.00019799,0,0,0.060741,-0.027095,0,-0.0010295,0,0,0,0.033069,-0.00071672,0.0097057,-0.3358,0.014019,0.029966,8.396e-07,0.89,0.35,0
0.043931,0.0032284,0.033057,-0.00072264,0.0097004,-0.00018299,0,0,0.060728,-0.0271,0,-0.00095154,0,0,0,0.033058,-0.00072363,0.0097004,-0.31039,0.014012,0.029962,8.3898e-07,0.9,0.35,0
0.044538,0.0032371,0.033048,-0.0007292,0.0096957,-0.00016717,0,0,0.060716,-0.027105,0,-0.00086929,0,0,0,0.033049,-0.00073003,0.0096957,-0.28359,0.014005,0.029959,8.3844e-07,0.91,0.35,0
0.045145,0.0032447,0.03304,-0.0007352,0.0096915,-0.0001506,0,0,0.060707,-0.027109,0,-0.00078312,0,0,0,0.033041,-0.00073588,0.0096915,-0.25549,0.013999,0.029957,8.3797e-07,0.92,0.35,0
0.045752,0.0032514,0.033033,-0.00074061,0.0096878,-0.00013334,0,0,0.060698,-0.027114,0,-0.00069336,0,0,0,0.033034,-0.00074114,0.0096878,-0.22622,0.013993,0.029955,8.3757e-07,0.93,0.35,0
0.046359,0.0032571,0.033027,-0.00074537,0.0096846,-0.00011546,0,0,0.060691,-0.027118,0,-0.00060041,0,0,0,0.033028,-0.00074577,0.0096846,-0.1959,0.013989,0.029953,8.3724e-07,0.94,0.35,0
0.046966,0.003262,0.033023,-0.00074946,0.009682,-9.7054e-05,0,0,0.060686,-0.027122,0,-0.00050468,0,0,0,0.033023,-0.00074975,0.009682,-0.16467,0.013985,0.029952,8.3697e-07,0.95,0.35,0
0.047573,0.0032659,0.033019,-0.00075285,0.0096798,-7.8193e-05,0,0,0.060681,-0.027125,0,-0.00040661,0,0,0,0.033019,-0.00075304,0.0096798,-0.13267,0.013982,0.029951,8.3675e-07,0.96,0.35,0
0.04818,0.0032689,0.033016,-0.00075551,0.0096781,-5.8968e-05,0,0,0.060678,-0.027127,0,-0.00030663,0,0,0,0.033016,-0.00075562,0.0096781,-0.10005,0.013979,0.02995,8.3659e-07,0.97,0.35,0
0.048787,0.003271,0.033014,-0.00075742,0.0096769,-3.9466e-05,0,0,0.060676,-0.027129,0,-0.00020522,0,0,0,0.033014,-0.00075747,0.0096769,-0.066963,0.013978,0.02995,8.3647e-07,0.98,0.35,0
0.049393,0.0032723,0.033012,-0.00075858,0.0096762,-1.7722e-05,0,0,0.060674,-0.02713,0,-9.2153e-05,0,0,0,0.033012,-0.00075859,0.0096762,-0.030069,0.013977,0.02995,8.364e-07,0.99,0.35,0
0.049697,0.0032728,0.033012,-0.00075896,0.0096759,-5.7861e-06,0,0,0.060674,-0.027131,0,-3.0088e-05,0,0,0,0.033012,-0.00075897,0.0096759,-0.0098179,0.013976,0.029949,8.3638e-07,1,0.35,0
0.00027529,5.1376e-05,0.037021,0.015514,0.015761,0.0019824,0,0,0.055278,-0.00064105,0,0.010308,0,0,0,0.037204,0.015332,0.015761,5.2208,0.022765,0.021662,5.2132e-07,0,0.36,0
0.00055278,0.00010433,0.037066,0.015211,0.015683,0.0020051,0,0,0.055596,-0.0012282,0,0.010426,0,0,0,0.03725,0.015027,0.015683,5.1969,0.022653,0.021904,5.3813e-07,0.01,0.36,0
0.0011119,0.00021347,0.037236,0.014694,0.015579,0.0020709,0,0,0.056309,-0.0023013,0,0.010769,0,0,0,0.037426,0.014504,0.015579,5.2026,0.022503,0.022405,5.7334e-07,0.02,0.36,0
0.001679,0.00032928,0.037489,0.014319,0.015542,0.0021696,0,0,0.05706,-0.00318,0,0.011282,0,0,0,0.037691,0.014117,0.015542,5.3008,0.02245,0.022896,6.0856e-07,0.03,0.36,0
0.0022531,0.00045245,0.037746,0.014054,0.01554,0.0023042,0,0,0.057734,-0.0038627,0,0.011982,0,0,0,0.037969,0.013831,0.01554,5.5012,0.022447,0.023331,6.4066e-07,0.04,0.36,0
0.0028336,0.00058409,0.037987,0.013923,0.015573,0.0024922,0,0,0.058277,-0.0042901,0,0.012959,0,0,0,0.038245,0.013665,0.015573,5.8512,0.022494,0.023684,6.6759e-07,0.05,0.36,0
0.0034187,0.00072477,0.038108,0.013766,0.015562,0.0026833,0,0,0.054936,-0.0042236,0,0.0131,0,0,0,0.038404,0.01347,0.015562,6.2252,0.022479,0.023959,6.8804e-07,0.06,0.36,0
0.0039324,0.00085018,0.038125,0.013484,0.015483,0.0027869,0,0,0.044104,-0.0036033,0,0.010957,0,0,0,0.038441,0.013168,0.015483,6.3854,0.022364,0.024203,7.0518e-07,0.07,0.36,0
0.0043007,0.00092954,0.038143,0.013103,0.015374,0.0027297,0,0,0.033268,-0.0031747,0,0.008067,0,0,0,0.038441,0.012805,0.015374,6.1564,0.022207,0.024455,7.231e-07,0.08,0.36,0
0.0045977,0.00097616,0.038093,0.012519,0.015183,0.0025342,0,0,0.029783,-0.0034644,0,0.0065889,0,0,0,0.038344,0.012267,0.015183,5.6076,0.021932,0.024749,7.4234e-07,0.09,0.36,0
0.0048964,0.0010134,0.037965,0.011868,0.01495,0.0023434,0,0,0.02992,-0.0040068,0,0.0060927,0,0,0,0.038175,0.011658,0.01495,5.092,0.021594,0.025035,7.5906e-07,0.1,0.36,0
0.0051961,0.0010453,0.037824,0.011268,0.014728,0.0021891,0,0,0.030026,-0.0044973,0,0.0056916,0,0,0,0.038005,0.011088,0.014728,4.6838,0.021274,0.025295,7.7334e-07,0.11,0.36,0
0.0054969,0.0010728,0.037695,0.010644,0.014502,0.0020273,0,0,0.030151,-0.0050148,0,0.0052709,0,0,0,0.037847,0.010492,0.014502,4.266,0.020947,0.025587,7.8945e-07,0.12,0.36,0
0.0057991,0.0010959,0.037593,0.010006,0.01428,0.0018689,0,0,0.030307,-0.0055556,0,0.0048593,0,0,0,0.03772,0.0098794,0.01428,3.8619,0.020626,0.025923,8.0826e-07,0.13,0.36,0
0.0061031,0.0011152,0.037508,0.0093721,0.014064,0.0017224,0,0,0.030477,-0.0060996,0,0.0044783,0,0,0,0.037614,0.0092664,0.014064,3.4935,0.020315,0.02628,8.2824e-07,0.14,0.36,0
0.0064087,0.0011309,0.037428,0.0087512,0.013854,0.0015888,0,0,0.030647,-0.0066333,0,0.0041308,0,0,0,0.037516,0.0086629,0.013854,3.1644,0.020011,0.026641,8.4797e-07,0.15,0.36,0
0.006716,0.0011436,0.037346,0.0081492,0.013649,0.001467,0,0,0.030807,-0.0071492,0,0.0038142,0,0,0,0.03742,0.0080752,0.013649,2.8716,0.019715,0.026994,8.6666e-07,0.16,0.36,0
0.0070248,0.0011534,0.03726,0.0075694,0.013449,0.0013555,0,0,0.030954,-0.0076432,0,0.0035242,0,0,0,0.037322,0.0075073,0.013449,2.6106,0.019426,0.027333,8.8388e-07,0.17,0.36,0
0.0073351,0.0011606,0.037169,0.0070136,0.013255,0.0012524,0,0,0.031088,-0.0081134,0,0.0032562,0,0,0,0.037221,0.0069613,0.013255,2.3759,0.019146,0.027656,8.9945e-07,0.18,0.36,0
0.0076466,0.0011655,0.037072,0.0064815,0.013066,0.0011559,0,0,0.031208,-0.00856,0,0.0030053,0,0,0,0.037116,0.0064375,0.013066,2.1624,0.018873,0.02796,9.1335e-07,0.19,0.36,0
0.0079592,0.0011681,0.036972,0.0059715,0.012883,0.0010643,0,0,0.031315,-0.008985,0,0.0027671,0,0,0,0.037009,0.0059346,0.012883,1.9653,0.018609,0.028249,9.2572e-07,0.2,0.36,0
0.0082729,0.0011687,0.036869,0.005481,0.012705,0.00097642,0,0,0.031413,-0.0093911,0,0.0025387,0,0,0,0.036899,0.0054503,0.012705,1.7813,0.018352,0.028523,9.3676e-07,0.21,0.36,0
0.0085875,0.0011673,0.036765,0.005007,0.012531,0.00089183,0,0,0.031503,-0.0097818,0,0.0023188,0,0,0,0.03679,0.0049817,0.012531,1.6084,0.018101,0.028786,9.4674e-07,0.22,0.36,0
0.008903,0.0011639,0.036661,0.0045463,0.012362,0.0008105,0,0,0.031588,-0.01016,0,0.0021073,0,0,0,0.036681,0.0045256,0.012362,1.4458,0.017856,0.029042,9.5591e-07,0.23,0.36,0
0.0092193,0.0011587,0.036558,0.0040961,0.012196,0.0007329,0,0,0.031671,-0.01053,0,0.0019055,0,0,0,0.036575,0.0040793,0.012196,1.2936,0.017617,0.029294,9.6451e-07,0.24,0.36,0
0.0095364,0.0011516,0.036459,0.0036538,0.012034,0.00065979,0,0,0.031752,-0.010894,0,0.0017154,0,0,0,0.036472,0.0036403,0.012034,1.1525,0.017382,0.029544,9.7272e-07,0.25,0.36,0
0.0098543,0.0011428,0.036362,0.0032171,0.011874,0.00059208,0,0,0.031835,-0.011254,0,0.0015394,0,0,0,0.036373,0.0032063,0.011874,1.0237,0.017151,0.029795,9.8072e-07,0.26,0.36,0
0.010173,0.0011322,0.03627,0.0027843,0.011716,0.00053078,0,0,0.03192,-0.011612,0,0.00138,0,0,0,0.036279,0.0027757,0.011716,0.90845,0.016924,0.030048,9.886e-07,0.27,0.36,0
0.010493,0.00112,0.036182,0.0023539,0.011561,0.00047688,0,0,0.032008,-0.011969,0,0.0012399,0,0,0,0.036189,0.0023471,0.011561,0.80793,0.016699,0.030305,9.9646e-07,0.28,0.36,0
0.010813,0.0011061,0.0361,0.0019247,0.011407,0.00043134,0,0,0.0321,-0.012327,0,0.0011215,0,0,0,0.036105,0.0019191,0.011407,0.72332,0.016477,0.030567,1.0044e-06,0.29,0.36,0
0.011135,0.0010908,0.036022,0.0014954,0.011255,0.000395,0,0,0.032197,-0.012688,0,0.001027,0,0,0,0.036027,0.0014908,0.011255,0.65556,0.016258,0.030836,1.0124e-06,0.3,0.36,0
0.011457,0.0010739,0.035951,0.0010652,0.011105,0.00036857,0,0,0.0323,-0.013051,0,0.00095827,0,0,0,0.035955,0.0010612,0.011105,0.60531,0.01604,0.031112,1.0207e-06,0.31,0.36,0
0.011781,0.0010555,0.035887,0.00063289,0.010956,0.00035248,0,0,0.03241,-0.01342,0,0.00091645,0,0,0,0.03589,0.00062931,0.010956,0.57273,0.015825,0.031398,1.0293e-06,0.32,0.36,0
0.012105,0.0010357,0.035832,0.00019753,0.010809,0.00034669,0,0,0.03253,-0.013795,0,0.0009014,0,0,0,0.035836,0.00019412,0.010809,0.55721,0.015613,0.031697,1.0385e-06,0.33,0.36,0
0.012431,0.0010142,0.035791,-0.00024209,0.010665,0.00035028,0,0,0.032664,-0.014179,0,0.00091072,0,0,0,0.035794,-0.00024552,0.010665,0.5567,0.015404,0.032011,1.0486e-06,0.34,0.36,0
0.012759,0.00099105,0.035767,-0.00068702,0.010524,0.00036059,0,0,0.032816,-0.014574,0,0.00093754,0,0,0,0.035771,-0.0006906,0.010524,0.56651,0.015201,0.032347,1.0601e-06,0.35,0.36,0
0.013088,0.0009658,0.03577,-0.0011376,0.01039,0.00037176,0,0,0.032994,-0.014985,0,0.00096657,0,0,0,0.035773,-0.0011413,0.01039,0.5771,0.015007,0.032711,1.0737e-06,0.36,0.36,0
0.013419,0.00093791,0.035808,-0.0015913,0.010265,0.00037191,0,0,0.033206,-0.015413,0,0.00096698,0,0,0,0.035812,-0.0015951,0.010265,0.57024,0.014827,0.03311,1.0902e-06,0.37,0.36,0
0.013752,0.00090642,0.03589,-0.002038,0.010156,0.00033936,0,0,0.033454,-0.015852,0,0.00088233,0,0,0,0.035893,-0.0020412,0.010156,0.51394,0.014669,0.033543,1.1101e-06,0.38,0.36,0
0.014088,0.00086981,0.036006,-0.0024459,0.010068,0.00024188,0,0,0.033719,-0.016268,0,0.00062888,0,0,0,0.036008,-0.0024479,0.010068,0.36249,0.014543,0.033973,1.1316e-06,0.39,0.36,0
0.014426,0.00082599,0.03612,-0.0027202,0.01002,5.6101e-05,0,0,0.033931,-0.016562,0,0.00014586,0,0,0,0.036122,-0.0027212,0.01002,0.08436,0.014473,0.034296,1.1495e-06,0.4,0.36,0
0.014766,0.0007732,0.036218,-0.0026654,0.010066,-0.00017946,0,0,0.033998,-0.01655,0,-0.00046659,0,0,0,0.03622,-0.0026671,0.010066,-0.26507,0.014539,0.034339,1.1571e-06,0.41,0.36,0
0.015106,0.00071185,0.036298,-0.0021453,0.010246,-0.0003211,0,0,0.033868,-0.016108,0,-0.00083485,0,0,0,0.036301,-0.0021484,0.010246,-0.47795,0.014799,0.033992,1.1504e-06,0.42,0.36,0
0.015444,0.00064603,0.036036,-0.0013833,0.010396,-0.00022001,0,0,0.034007,-0.015605,0,-0.00057093,0,0,0,0.036039,-0.0013862,0.010396,-0.32944,0.015016,0.033144,1.1166e-06,0.43,0.36,0
0.015784,0.00058718,0.035439,-0.00090583,0.01036,3.9609e-05,0,0,0.036322,-0.016264,0,0.0001448,0,0,0,0.035444,-0.00091057,0.01036,0.089563,0.014965,0.032233,1.0916e-06,0.44,0.36,0
0.016164,0.00056739,0.035845,-0.0010485,0.010439,-2.3785e-05,0,0,0.043336,-0.019325,0,-7.2901e-05,0,0,0,0.035861,-0.0010644,0.010439,0.067632,0.015079,0.032735,1.1893e-06,0.45,0.36,0
0.016654,0.00062594,0.036638,-0.0011062,0.01066,-0.00024479,0,0,0.054027,-0.023896,0,-0.00066719,0,0,0,0.03666,-0.0011276,0.01066,-0.24836,0.015397,0.033504,1.2571e-06,0.46,0.36,0
0.01726,0.00075356,0.036023,-0.0004488,0.010672,-8.3824e-06,0,0,0.062011,-0.026867,0,0.00032345,0,0,0,0.036034,-0.00045973,0.010672,0.046746,0.015415,0.032404,1.1148e-06,0.47,0.36,0
0.017903,0.00090224,0.035178,0.00027037,0.010635,0.00028107,0,0,0.063814,-0.026947,0,0.0014616,0,0,0,0.035182,0.00026682,0.010635,0.45911,0.015361,0.031058,9.8124e-07,0.48,0.36,0
0.018536,0.0010464,0.034944,0.00069035,0.01069,0.00027034,0,0,0.06306,-0.026,0,0.0014058,0,0,0,0.034947,0.00068755,0.01069,0.45017,0.015442,0.030514,9.483e-07,0.49,0.36,0
0.019164,0.0011812,0.034805,0.00092283,0.010718,0.00015569,0,0,0.062626,-0.025468,0,0.00080959,0,0,0,0.034806,0.00092173,0.010718,0.2623,0.015482,0.030202,9.2944e-07,0.5,0.36,0
0.019789,0.0013036,0.034746,0.00096584,0.010714,1.8562e-05,0,0,0.062484,-0.025344,0,9.6524e-05,0,0,0,0.034746,0.00096557,0.010714,0.031421,0.015475,0.030114,9.2321e-07,0.51,0.36,0
0.020414,0.001414,0.034732,0.00091361,0.010694,-9.6753e-05,0,0,0.0625,-0.025428,0,-0.00050311,0,0,0,0.034733,0.00091318,0.010694,-0.16375,0.015447,0.030144,9.2376e-07,0.52,0.36,0
0.021039,0.0015142,0.034727,0.00081386,0.010662,-0.00018543,0,0,0.062568,-0.025606,0,-0.00096423,0,0,0,0.034728,0.00081276,0.010662,-0.31312,0.015401,0.030219,9.2645e-07,0.53,0.36,0
0.021665,0.0016056,0.034714,0.00068766,0.010621,-0.00025164,0,0,0.062644,-0.025826,0,-0.0013085,0,0,0,0.034716,0.00068574,0.010621,-0.42364,0.015341,0.03031,9.2939e-07,0.54,0.36,0
0.022292,0.0016896,0.034693,0.00055028,0.010573,-0.00029865,0,0,0.062712,-0.026059,0,-0.001553,0,0,0,0.034696,0.00054763,0.010573,-0.50117,0.015272,0.030402,9.319e-07,0.55,0.36,0
0.022919,0.0017674,0.034662,0.00041248,0.010522,-0.00032939,0,0,0.062764,-0.026286,0,-0.0017129,0,0,0,0.034666,0.00040928,0.010522,-0.55111,0.015199,0.030485,9.3362e-07,0.56,0.36,0
0.023547,0.0018399,0.034623,0.00028096,0.010471,-0.00034703,0,0,0.062794,-0.026494,0,-0.0018046,0,0,0,0.034626,0.00027741,0.010471,-0.57912,0.015125,0.030555,9.3434e-07,0.57,0.36,0
0.024175,0.0019079,0.034574,0.00015946,0.01042,-0.00035465,0,0,0.062801,-0.026678,0,-0.0018442,0,0,0,0.034578,0.00015577,0.01042,-0.59061,0.015051,0.030609,9.3403e-07,0.58,0.36,0
0.024803,0.001972,0.034519,4.9813e-05,0.010371,-0.000355,0,0,0.062786,-0.026834,0,-0.001846,0,0,0,0.034523,4.6102e-05,0.010371,-0.59029,0.01498,0.030648,9.3273e-07,0.59,0.36,0
0.025431,0.0020328,0.034457,-4.7445e-05,0.010323,-0.0003504,0,0,0.062749,-0.026963,0,-0.0018221,0,0,0,0.034461,-5.1069e-05,0.010323,-0.58206,0.014911,0.03067,9.3054e-07,0.6,0.36,0
0.026058,0.0020906,0.034391,-0.00013255,0.010278,-0.0003427,0,0,0.062695,-0.027066,0,-0.001782,0,0,0,0.034395,-0.00013602,0.010278,-0.56896,0.014845,0.030679,9.2762e-07,0.61,0.36,0
0.026685,0.0021458,0.034322,-0.00020621,0.010235,-0.00033335,0,0,0.062627,-0.027146,0,-0.0017334,0,0,0,0.034325,-0.00020951,0.010235,-0.55337,0.014783,0.030676,9.2409e-07,0.62,0.36,0
0.027311,0.0021986,0.03425,-0.00026943,0.010194,-0.00032343,0,0,0.062546,-0.027206,0,-0.0016818,0,0,0,0.034254,-0.00027254,0.010194,-0.53703,0.014725,0.030663,9.2011e-07,0.63,0.36,0
0.027936,0.0022492,0.034178,-0.00032331,0.010156,-0.00031373,0,0,0.062456,-0.027247,0,-0.0016314,0,0,0,0.034181,-0.00032625,0.010156,-0.5212,0.01467,0.030642,9.1579e-07,0.64,0.36,0
0.02856,0.0022977,0.034106,-0.00036903,0.010121,-0.00030477,0,0,0.062361,-0.027274,0,-0.0015848,0,0,0,0.034109,-0.0003718,0.010121,-0.5067,0.014619,0.030614,9.1127e-07,0.65,0.36,0
0.029183,0.0023441,0.034035,-0.00040771,0.010088,-0.0002969,0,0,0.062261,-0.027289,0,-0.0015439,0,0,0,0.034037,-0.00041035,0.010088,-0.49407,0.014572,0.030581,9.0663e-07,0.66,0.36,0
0.029805,0.0023887,0.033965,-0.00044045,0.010057,-0.00029027,0,0,0.06216,-0.027294,0,-0.0015094,0,0,0,0.033967,-0.00044297,0.010057,-0.48354,0.014527,0.030545,9.0198e-07,0.67,0.36,0
0.030426,0.0024313,0.033897,-0.00046822,0.010029,-0.00028492,0,0,0.062058,-0.027292,0,-0.0014816,0,0,0,0.0339,-0.00047065,0.010029,-0.47517,0.014486,0.030507,8.9737e-07,0.68,0.36,0
0.031046,0.0024721,0.033832,-0.00049192,0.010002,-0.00028079,0,0,0.061958,-0.027284,0,-0.0014601,0,0,0,0.033835,-0.00049428,0.010002,-0.46884,0.014447,0.030468,8.9287e-07,0.69,0.36,0
0.031665,0.0025111,0.03377,-0.00051235,0.0099773,-0.00027776,0,0,0.061861,-0.027273,0,-0.0014444,0,0,0,0.033772,-0.00051465,0.0099773,-0.46433,0.014412,0.030429,8.8854e-07,0.7,0.36,0
0.032283,0.0025483,0.033711,-0.00053017,0.0099543,-0.00027565,0,0,0.061768,-0.02726,0,-0.0014334,0,0,0,0.033713,-0.00053244,0.0099543,-0.46134,0.014378,0.030391,8.8439e-07,0.71,0.36,0
0.032901,0.0025838,0.033656,-0.00054597,0.0099329,-0.00027424,0,0,0.061679,-0.027245,0,-0.0014261,0,0,0,0.033658,-0.00054821,0.0099329,-0.45951,0.014347,0.030354,8.8046e-07,0.72,0.36,0
0.033517,0.0026175,0.033603,-0.00056023,0.0099129,-0.00027332,0,0,0.061595,-0.02723,0,-0.0014213,0,0,0,0.033606,-0.00056245,0.0099129,-0.45847,0.014319,0.030319,8.7677e-07,0.73,0.36,0
0.034133,0.0026495,0.033555,-0.00057334,0.0098944,-0.00027266,0,0,0.061516,-0.027216,0,-0.0014178,0,0,0,0.033557,-0.00057555,0.0098944,-0.45783,0.014292,0.030286,8.7332e-07,0.74,0.36,0
0.034747,0.0026798,0.033509,-0.00058563,0.009877,-0.00027203,0,0,0.061443,-0.027203,0,-0.0014146,0,0,0,0.033511,-0.00058783,0.009877,-0.45721,0.014267,0.030256,8.7012e-07,0.75,0.36,0
0.035361,0.0027084,0.033467,-0.00059734,0.0098609,-0.00027123,0,0,0.061376,-0.027191,0,-0.0014104,0,0,0,0.033469,-0.00059952,0.0098609,-0.45626,0.014244,0.030228,8.6717e-07,0.76,0.36,0
0.035975,0.0027354,0.033428,-0.00060865,0.0098459,-0.00027006,0,0,0.061314,-0.027182,0,-0.0014043,0,0,0,0.03343,-0.00061081,0.0098459,-0.45466,0.014222,0.030202,8.6446e-07,0.77,0.36,0
0.036588,0.0027608,0.033392,-0.00061969,0.0098318,-0.00026835,0,0,0.061258,-0.027174,0,-0.0013954,0,0,0,0.033395,-0.00062182,0.0098318,-0.4521,0.014202,0.030179,8.62e-07,0.78,0.36,0
0.0372,0.0027847,0.03336,-0.00063055,0.0098187,-0.00026595,0,0,0.061206,-0.027168,0,-0.001383,0,0,0,0.033362,-0.00063265,0.0098187,-0.44834,0.014183,0.030159,8.5976e-07,0.79,0.36,0
0.037812,0.002807,0.03333,-0.00064129,0.0098065,-0.00026274,0,0,0.06116,-0.027164,0,-0.0013662,0,0,0,0.033332,-0.00064333,0.0098065,-0.44316,0.014165,0.030141,8.5773e-07,0.8,0.36,0
0.038423,0.0028279,0.033302,-0.00065191,0.0097951,-0.0002586,0,0,0.061119,-0.027162,0,-0.0013447,0,0,0,0.033304,-0.00065389,0.0097951,-0.4364,0.014149,0.030125,8.559e-07,0.81,0.36,0
0.039034,0.0028473,0.033277,-0.00066242,0.0097845,-0.00025346,0,0,0.061082,-0.027162,0,-0.001318,0,0,0,0.033279,-0.00066432,0.0097845,-0.4279,0.014133,0.030111,8.5427e-07,0.82,0.36,0
0.039645,0.0028653,0.033255,-0.00067279,0.0097747,-0.00024726,0,0,0.061049,-0.027163,0,-0.0012858,0,0,0,0.033257,-0.0006746,0.0097747,-0.41759,0.014119,0.030099,8.528e-07,0.83,0.36,0
0.040255,0.0028821,0.033235,-0.00068299,0.0097655,-0.00023997,0,0,0.06102,-0.027166,0,-0.0012478,0,0,0,0.033236,-0.00068469,0.0097655,-0.40539,0.014106,0.030089,8.515e-07,0.84,0.36,0
0.040865,0.0028975,0.033216,-0.00069296,0.009757,-0.00023156,0,0,0.060994,-0.02717,0,-0.0012041,0,0,0,0.033218,-0.00069455,0.009757,-0.39129,0.014093,0.030081,8.5035e-07,0.85,0.36,0
0.041475,0.0029117,0.0332,-0.00070265,0.0097492,-0.00022204,0,0,0.060972,-0.027175,0,-0.0011546,0,0,0,0.033201,-0.00070411,0.0097492,-0.37527,0.014082,0.030074,8.4933e-07,0.86,0.36,0
0.042085,0.0029247,0.033185,-0.00071201,0.009742,-0.00021143,0,0,0.060952,-0.02718,0,-0.0010994,0,0,0,0.033187,-0.00071333,0.009742,-0.35739,0.014072,0.030068,8.4844e-07,0.87,0.36,0
0.042694,0.0029365,0.033172,-0.00072096,0.0097353,-0.00019974,0,0,0.060936,-0.027186,0,-0.0010386,0,0,0,0.033173,-0.00072214,0.0097353,-0.33767,0.014062,0.030063,8.4766e-07,0.88,0.36,0
0.043303,0.0029472,0.03316,-0.00072946,0.0097293,-0.00018703,0,0,0.060921,-0.027193,0,-0.00097254,0,0,0,0.033162,-0.00073049,0.0097293,-0.31621,0.014053,0.030059,8.4698e-07,0.89,0.36,0
0.043913,0.0029569,0.03315,-0.00073743,0.0097238,-0.00017334,0,0,0.060909,-0.027199,0,-0.00090138,0,0,0,0.033151,-0.00073832,0.0097238,-0.29309,0.014046,0.030057,8.4638e-07,0.9,0.36,0
0.044522,0.0029655,0.033141,-0.00074483,0.0097189,-0.00015875,0,0,0.060898,-0.027206,0,-0.00082549,0,0,0,0.033142,-0.00074558,0.0097189,-0.26843,0.014038,0.030054,8.4588e-07,0.91,0.36,0
0.04513,0.0029731,0.033133,-0.0007516,0.0097145,-0.00014331,0,0,0.060889,-0.027212,0,-0.00074523,0,0,0,0.033134,-0.00075221,0.0097145,-0.24234,0.014032,0.030052,8.4544e-07,0.92,0.36,0
0.045739,0.0029797,0.033127,-0.00075769,0.0097107,-0.00012712,0,0,0.060882,-0.027218,0,-0.00066102,0,0,0,0.033127,-0.00075817,0.0097107,-0.21496,0.014027,0.030051,8.4507e-07,0.93,0.36,0
0.046348,0.0029854,0.033121,-0.00076306,0.0097074,-0.00011025,0,0,0.060875,-0.027223,0,-0.00057329,0,0,0,0.033121,-0.00076343,0.0097074,-0.18644,0.014022,0.03005,8.4477e-07,0.94,0.36,0
0.046957,0.0029902,0.033116,-0.00076767,0.0097046,-9.2789e-05,0,0,0.06087,-0.027228,0,-0.0004825,0,0,0,0.033117,-0.00076793,0.0097046,-0.15691,0.014018,0.03005,8.4452e-07,0.95,0.36,0
0.047566,0.0029941,0.033113,-0.00077149,0.0097023,-7.4834e-05,0,0,0.060867,-0.027232,0,-0.00038914,0,0,0,0.033113,-0.00077166,0.0097023,-0.12655,0.014014,0.030049,8.4432e-07,0.96,0.36,0
0.048174,0.0029971,0.03311,-0.00077448,0.0097005,-5.6479e-05,0,0,0.060864,-0.027235,0,-0.00029369,0,0,0,0.03311,-0.00077458,0.0097005,-0.095508,0.014012,0.030049,8.4417e-07,0.97,0.36,0
0.048783,0.0029992,0.033108,-0.00077664,0.0096993,-3.7821e-05,0,0,0.060862,-0.027237,0,-0.00019667,0,0,0,0.033108,-0.00077669,0.0096993,-0.063957,0.01401,0.030049,8.4406e-07,0.98,0.36,0
0.049391,0.0030005,0.033106,-0.00077794,0.0096985,-1.6924e-05,0,0,0.06086,-0.027239,0,-8.8005e-05,0,0,0,0.033106,-0.00077796,0.0096985,-0.02862,0.014009,0.030049,8.44e-07,0.99,0.36,0
0.049696,0.0030009,0.033106,-0.00077837,0.0096983,-5.419e-06,0,0,0.06086,-0.027239,0,-2.8179e-05,0,0,0,0.033106,-0.00077838,0.0096983,-0.0091641,0.014009,0.030049,8.4398e-07,1,0.36,0
0.00027373,4.496e-05,0.036814,0.01543,0.015673,0.0017336,0,0,0.054965,-0.00063111,0,0.0090145,0,0,0,0.036954,0.01529,0.015673,4.6025,0.022639,0.021477,5.0821e-07,0,0.37,0
0.00054965,9.2016e-05,0.03686,0.01513,0.015597,0.0017566,0,0,0.055284,-0.001214,0,0.0091346,0,0,0,0.037003,0.014988,0.015597,4.5891,0.022529,0.021718,5.248e-07,0.01,0.37,0
0.0011057,0.00019029,0.037037,0.014613,0.015495,0.0018223,0,0,0.056009,-0.0022931,0,0.0094758,0,0,0,0.037185,0.014465,0.015495,4.6113,0.022382,0.022224,5.5994e-07,0.02,0.37,0
0.0016698,0.00029699,0.037305,0.014223,0.015459,0.0019129,0,0,0.056802,-0.003212,0,0.0099473,0,0,0,0.037464,0.014064,0.015459,4.7009,0.022329,0.022736,5.962e-07,0.03,0.37,0
0.0022417,0.0004127,0.037607,0.013928,0.01546,0.0020255,0,0,0.05758,-0.0039839,0,0.010532,0,0,0,0.037781,0.013754,0.01546,4.8484,0.022332,0.023221,6.3167e-07,0.04,0.37,0
0.0028214,0.00053892,0.037968,0.013755,0.015517,0.0021904,0,0,0.058373,-0.0045809,0,0.01139,0,0,0,0.038168,0.013556,0.015517,5.1207,0.022414,0.023693,6.6778e-07,0.05,0.37,0
0.0034092,0.00067905,0.038486,0.013537,0.015607,0.0023146,0,0,0.055464,-0.0047991,0,0.01137,0,0,0,0.038708,0.013315,0.015607,5.2868,0.022543,0.024332,7.2888e-07,0.06,0.37,0
0.0039345,0.0008113,0.038634,0.01328,0.015574,0.0025621,0,0,0.045265,-0.0041892,0,0.010131,0,0,0,0.038918,0.012996,0.015574,5.8261,0.022496,0.024739,7.7742e-07,0.07,0.37,0
0.00432,0.00089692,0.0383,0.0131,0.01542,0.0029174,0,0,0.034637,-0.003354,0,0.0089734,0,0,0,0.03866,0.012739,0.01542,6.642,0.022273,0.024693,7.6763e-07,0.08,0.37,0
0.0046268,0.00094143,0.038254,0.012706,0.015288,0.002864,0,0,0.030488,-0.0033882,0,0.0077388,0,0,0,0.038583,0.012377,0.015288,6.3683,0.022083,0.024879,7.6192e-07,0.09,0.37,0
0.0049276,0.00097345,0.038203,0.012107,0.015093,0.0025675,0,0,0.030043,-0.0038819,0,0.0066755,0,0,0,0.038456,0.011853,0.015093,5.5688,0.021801,0.02514,7.7055e-07,0.1,0.37,0
0.0052276,0.0010009,0.037925,0.011483,0.014822,0.0023435,0,0,0.030033,-0.0043415,0,0.006093,0,0,0,0.038133,0.011274,0.014822,5.0306,0.02141,0.025273,7.7405e-07,0.11,0.37,0
0.0055283,0.0010232,0.037752,0.010824,0.014573,0.0021348,0,0,0.030133,-0.0048737,0,0.0055504,0,0,0,0.037921,0.010654,0.014573,4.5095,0.021049,0.025535,7.8748e-07,0.12,0.37,0
0.0058303,0.001041,0.03764,0.010163,0.014341,0.001957,0,0,0.030288,-0.0054311,0,0.0050882,0,0,0,0.037779,0.010023,0.014341,4.0578,0.020714,0.02587,8.0612e-07,0.13,0.37,0
0.006134,0.0010547,0.037547,0.0095126,0.014118,0.0018051,0,0,0.030458,-0.0059869,0,0.0046933,0,0,0,0.037663,0.0093961,0.014118,3.6726,0.020392,0.026228,8.2613e-07,0.14,0.37,0
0.0064395,0.0010651,0.037459,0.0088778,0.013901,0.001672,0,0,0.030625,-0.00653,0,0.0043472,0,0,0,0.037557,0.0087798,0.013901,3.3397,0.020079,0.02659,8.4585e-07,0.15,0.37,0
0.0067465,0.0010726,0.037369,0.0082635,0.01369,0.0015536,0,0,0.030783,-0.0070542,0,0.0040393,0,0,0,0.037452,0.0081803,0.01369,3.0493,0.019774,0.026944,8.6453e-07,0.16,0.37,0
0.0070551,0.0010774,0.037277,0.0076737,0.013485,0.0014469,0,0,0.030929,-0.0075549,0,0.003762,0,0,0,0.037348,0.0076027,0.013485,2.7937,0.019479,0.027284,8.8176e-07,0.17,0.37,0
0.0073651,0.0010799,0.037181,0.0071105,0.013287,0.001349,0,0,0.031061,-0.0080299,0,0.0035073,0,0,0,0.037241,0.0070497,0.013287,2.5652,0.019193,0.027607,8.9729e-07,0.18,0.37,0
0.0076763,0.0010803,0.037081,0.0065735,0.013096,0.0012568,0,0,0.03118,-0.0084795,0,0.0032676,0,0,0,0.037133,0.0065215,0.013096,2.3566,0.018917,0.027911,9.1112e-07,0.19,0.37,0
0.0079887,0.0010787,0.036978,0.0060604,0.012911,0.001168,0,0,0.031286,-0.0089063,0,0.0030368,0,0,0,0.037022,0.006016,0.012911,2.1619,0.01865,0.028198,9.2341e-07,0.2,0.37,0
0.0083021,0.0010752,0.036873,0.0055676,0.012732,0.0010813,0,0,0.031383,-0.009314,0,0.0028113,0,0,0,0.036911,0.00553,0.012732,1.9771,0.018391,0.028472,9.3444e-07,0.21,0.37,0
0.0086164,0.0010698,0.03677,0.0050915,0.012558,0.00099604,0,0,0.031475,-0.0097069,0,0.0025897,0,0,0,0.036801,0.0050598,0.012558,1.8004,0.01814,0.028736,9.4452e-07,0.22,0.37,0
0.0089316,0.0010626,0.036668,0.0046281,0.012389,0.00091259,0,0,0.031563,-0.010089,0,0.0023727,0,0,0,0.036694,0.0046019,0.012389,1.6313,0.017895,0.028994,9.5397e-07,0.23,0.37,0
0.0092476,0.0010537,0.03657,0.0041744,0.012223,0.00083167,0,0,0.031651,-0.010464,0,0.0021623,0,0,0,0.036592,0.0041528,0.012223,1.4706,0.017656,0.029251,9.6303e-07,0.24,0.37,0
0.0095646,0.0010429,0.036477,0.0037276,0.012061,0.00075432,0,0,0.03174,-0.010834,0,0.0019612,0,0,0,0.036494,0.0037099,0.012061,1.3197,0.017422,0.029509,9.7193e-07,0.25,0.37,0
0.0098824,0.0010304,0.036389,0.0032853,0.011902,0.00068173,0,0,0.031833,-0.011202,0,0.0017725,0,0,0,0.036403,0.0032711,0.011902,1.1801,0.017192,0.029771,9.8083e-07,0.26,0.37,0
0.010201,0.0010163,0.036308,0.0028459,0.011746,0.00061502,0,0,0.03193,-0.01157,0,0.001599,0,0,0,0.036319,0.0028344,0.011746,1.0533,0.016967,0.030038,9.8986e-07,0.27,0.37,0
0.010521,0.0010004,0.036233,0.0024079,0.011592,0.00055525,0,0,0.032033,-0.01194,0,0.0014436,0,0,0,0.036242,0.0023987,0.011592,0.94076,0.016744,0.030312,9.9912e-07,0.28,0.37,0
0.010842,0.00098292,0.036166,0.0019702,0.011441,0.00050331,0,0,0.032143,-0.012312,0,0.0013086,0,0,0,0.036174,0.0019627,0.011441,0.84353,0.016526,0.030594,1.0087e-06,0.29,0.37,0
0.011164,0.00096387,0.036107,0.0015319,0.011292,0.00045988,0,0,0.03226,-0.012688,0,0.0011957,0,0,0,0.036114,0.0015257,0.011292,0.76224,0.01631,0.030886,1.0187e-06,0.3,0.37,0
0.011487,0.00094326,0.036058,0.0010922,0.011145,0.00042528,0,0,0.032387,-0.013069,0,0.0011057,0,0,0,0.036064,0.001087,0.011145,0.69698,0.016099,0.031189,1.0293e-06,0.31,0.37,0
0.011812,0.00092112,0.036021,0.00065064,0.011001,0.00039936,0,0,0.032525,-0.013456,0,0.0010383,0,0,0,0.036025,0.00064611,0.011001,0.64698,0.015891,0.031505,1.0405e-06,0.32,0.37,0
0.012138,0.00089739,0.035997,0.00020671,0.010861,0.00038119,0,0,0.032677,-0.013851,0,0.00099109,0,0,0,0.036001,0.00020263,0.010861,0.61028,0.015688,0.031837,1.0528e-06,0.33,0.37,0
0.012465,0.000872,0.035991,-0.00023953,0.010725,0.00036857,0,0,0.032845,-0.014254,0,0.00095829,0,0,0,0.035995,-0.00024329,0.010725,0.58295,0.015492,0.032187,1.0662e-06,0.34,0.37,0
0.012795,0.00084474,0.036007,-0.00068712,0.010596,0.00035725,0,0,0.033034,-0.014668,0,0.00092884,0,0,0,0.03601,-0.00069062,0.010596,0.55804,0.015305,0.032559,1.0814e-06,0.35,0.37,0
0.013126,0.00081528,0.036049,-0.0011329,0.010475,0.00033971,0,0,0.033246,-0.01509,0,0.00088325,0,0,0,0.036052,-0.0011361,0.010475,0.52395,0.01513,0.032955,1.0985e-06,0.36,0.37,0
0.013459,0.00078308,0.036122,-0.0015689,0.010366,0.00030387,0,0,0.033483,-0.015515,0,0.00079005,0,0,0,0.036124,-0.0015715,0.010366,0.4628,0.014973,0.033369,1.1178e-06,0.37,0.37,0
0.013795,0.00074731,0.036221,-0.0019763,0.010273,0.00023294,0,0,0.033732,-0.015925,0,0.00060565,0,0,0,0.036223,-0.001978,0.010273,0.35071,0.014839,0.033784,1.1385e-06,0.38,0.37,0
0.014134,0.00070689,0.036331,-0.0023137,0.010205,0.00011102,0,0,0.033963,-0.016274,0,0.00028866,0,0,0,0.036332,-0.0023145,0.010205,0.16599,0.014741,0.034153,1.1581e-06,0.39,0.37,0
0.014475,0.00066068,0.036426,-0.002503,0.010177,-6.0194e-05,0,0,0.034124,-0.016484,0,-0.0001565,0,0,0,0.036427,-0.0025037,0.010177,-0.087907,0.0147,0.034391,1.1722e-06,0.4,0.37,0
0.014817,0.00060816,0.036483,-0.0024507,0.01021,-0.00023734,0,0,0.034155,-0.016459,0,-0.00061709,0,0,0,0.036485,-0.0024525,0.01021,-0.3497,0.014747,0.034401,1.1763e-06,0.41,0.37,0
0.015158,0.00055035,0.036501,-0.0021134,0.010316,-0.0003372,0,0,0.03404,-0.016159,0,-0.00087673,0,0,0,0.036504,-0.0021164,0.010316,-0.50064,0.014901,0.034146,1.1686e-06,0.42,0.37,0
0.015497,0.00049038,0.036458,-0.001586,0.010462,-0.00026647,0,0,0.033795,-0.015662,0,-0.00069281,0,0,0,0.036461,-0.0015887,0.010462,-0.39909,0.015111,0.033682,1.1492e-06,0.43,0.37,0
0.015834,0.00043322,0.036015,-0.0011551,0.010458,4.4292e-05,0,0,0.033954,-0.015414,0,0.00017271,0,0,0,0.036018,-0.0011587,0.010458,0.086422,0.015106,0.032943,1.1065e-06,0.44,0.37,0
0.016174,0.0003918,0.035415,-0.0011586,0.010277,0.00032705,0,0,0.037805,-0.016834,0,0.0012969,0,0,0,0.035435,-0.0011786,0.010277,0.61497,0.014845,0.032456,1.089e-06,0.45,0.37,0
0.016586,0.00039933,0.035639,-0.0011799,0.010338,0.00029358,0,0,0.047979,-0.021026,0,0.0015873,0,0,0,0.035671,-0.0012126,0.010338,0.63035,0.014932,0.032709,1.1374e-06,0.46,0.37,0
0.017139,0.00048544,0.036019,-0.00061829,0.01062,0.00026975,0,0,0.058765,-0.025496,0,0.0015693,0,0,0,0.036037,-0.00063606,0.01062,0.51078,0.01534,0.032555,1.1303e-06,0.47,0.37,0
0.017773,0.00063042,0.035627,0.00018899,0.010745,0.00039914,0,0,0.063345,-0.026832,0,0.0020655,0,0,0,0.035633,0.00018317,0.010745,0.65267,0.01552,0.031526,1.0339e-06,0.48,0.37,0
0.018411,0.00078608,0.035224,0.00080298,0.010808,0.00037762,0,0,0.063481,-0.026013,0,0.0019636,0,0,0,0.035229,0.00079811,0.010808,0.62681,0.015612,0.030677,9.6787e-07,0.49,0.37,0
0.019043,0.0009267,0.035142,0.0010748,0.010865,0.00020289,0,0,0.06312,-0.025455,0,0.001055,0,0,0,0.035144,0.001073,0.010865,0.34052,0.015694,0.030382,9.5225e-07,0.5,0.37,0
0.019674,0.00105,0.035107,0.0010832,0.010857,4.0992e-05,0,0,0.06305,-0.025412,0,0.00021316,0,0,0,0.035107,0.0010829,0.010857,0.068838,0.015682,0.030342,9.4899e-07,0.51,0.37,0
0.020304,0.0011594,0.035082,0.0010121,0.010828,-7.5004e-05,0,0,0.063059,-0.025522,0,-0.00039002,0,0,0,0.035082,0.0010118,0.010828,-0.12627,0.015641,0.030376,9.4914e-07,0.52,0.37,0
0.020935,0.0012577,0.035044,0.00089068,0.010781,-0.0001601,0,0,0.063086,-0.025714,0,-0.00083251,0,0,0,0.035045,0.00088983,0.010781,-0.26867,0.015572,0.03044,9.4993e-07,0.53,0.37,0
0.021566,0.0013468,0.035002,0.00074193,0.010723,-0.00022113,0,0,0.063124,-0.025951,0,-0.0011498,0,0,0,0.035003,0.00074043,0.010723,-0.36993,0.015489,0.030521,9.5111e-07,0.54,0.37,0
0.022197,0.0014284,0.034955,0.00058515,0.010662,-0.00026101,0,0,0.063162,-0.0262,0,-0.0013573,0,0,0,0.034957,0.00058311,0.010662,-0.43529,0.015401,0.030606,9.5218e-07,0.55,0.37,0
0.022829,0.0015039,0.034903,0.00043212,0.010601,-0.00028363,0,0,0.063187,-0.026438,0,-0.0014749,0,0,0,0.034906,0.00042973,0.010601,-0.47167,0.015312,0.030682,9.5262e-07,0.56,0.37,0
0.023461,0.0015742,0.034845,0.00028929,0.01054,-0.00029326,0,0,0.063192,-0.026652,0,-0.0015249,0,0,0,0.034847,0.00028674,0.01054,-0.48653,0.015225,0.030744,9.5214e-07,0.57,0.37,0
0.024093,0.0016403,0.03478,0.00015981,0.010482,-0.00029373,0,0,0.063175,-0.026837,0,-0.0015274,0,0,0,0.034782,0.00015725,0.010482,-0.48643,0.015141,0.03079,9.5067e-07,0.58,0.37,0
0.024725,0.0017029,0.034709,4.485e-05,0.010426,-0.00028818,0,0,0.063136,-0.026992,0,-0.0014985,0,0,0,0.034712,4.2371e-05,0.010426,-0.47664,0.01506,0.030819,9.4825e-07,0.59,0.37,0
0.025356,0.0017624,0.034634,-5.5619e-05,0.010374,-0.00027904,0,0,0.063077,-0.027116,0,-0.001451,0,0,0,0.034636,-5.7956e-05,0.010374,-0.46119,0.014984,0.030832,9.4501e-07,0.6,0.37,0
0.025986,0.0018192,0.034555,-0.00014233,0.010324,-0.00026816,0,0,0.063002,-0.027212,0,-0.0013944,0,0,0,0.034558,-0.0001445,0.010324,-0.4431,0.014912,0.030831,9.4108e-07,0.61,0.37,0
0.026616,0.0018737,0.034475,-0.00021641,0.010278,-0.0002569,0,0,0.062913,-0.027284,0,-0.0013359,0,0,0,0.034477,-0.00021841,0.010278,-0.42456,0.014845,0.030818,9.3663e-07,0.62,0.37,0
0.027244,0.0019259,0.034394,-0.00027919,0.010234,-0.00024621,0,0,0.062814,-0.027335,0,-0.0012803,0,0,0,0.034395,-0.00028104,0.010234,-0.4071,0.014783,0.030796,9.3179e-07,0.63,0.37,0
0.027872,0.0019761,0.034312,-0.00033208,0.010194,-0.00023673,0,0,0.062708,-0.027368,0,-0.001231,0,0,0,0.034314,-0.0003338,0.010194,-0.39175,0.014725,0.030766,9.267e-07,0.64,0.37,0
0.028498,0.0020243,0.034232,-0.00037645,0.010157,-0.00022887,0,0,0.062597,-0.027386,0,-0.0011901,0,0,0,0.034234,-0.00037806,0.010157,-0.37911,0.014671,0.03073,9.2148e-07,0.65,0.37,0
0.029124,0.0020707,0.034154,-0.00041363,0.010122,-0.00022279,0,0,0.062483,-0.027393,0,-0.0011585,0,0,0,0.034156,-0.00041515,0.010122,-0.36947,0.014621,0.03069,9.1622e-07,0.66,0.37,0
0.029748,0.0021152,0.034078,-0.00044483,0.01009,-0.00021854,0,0,0.06237,-0.027391,0,-0.0011364,0,0,0,0.03408,-0.00044629,0.01009,-0.36287,0.014575,0.030648,9.1102e-07,0.67,0.37,0
0.030371,0.0021579,0.034006,-0.00047114,0.01006,-0.00021603,0,0,0.062258,-0.027382,0,-0.0011233,0,0,0,0.034007,-0.00047257,0.01006,-0.35916,0.014532,0.030604,9.0594e-07,0.68,0.37,0
0.030993,0.0021988,0.033936,-0.00049355,0.010033,-0.00021508,0,0,0.062149,-0.027368,0,-0.0011184,0,0,0,0.033938,-0.00049496,0.010033,-0.35806,0.014492,0.03056,9.0103e-07,0.69,0.37,0
0.031614,0.002238,0.03387,-0.00051288,0.010007,-0.00021547,0,0,0.062044,-0.027352,0,-0.0011204,0,0,0,0.033872,-0.00051429,0.010007,-0.35918,0.014455,0.030517,8.9635e-07,0.7,0.37,0
0.032234,0.0022753,0.033808,-0.00052984,0.0099835,-0.00021693,0,0,0.061944,-0.027335,0,-0.001128,0,0,0,0.03381,-0.00053127,0.0099835,-0.36208,0.014421,0.030476,8.9191e-07,0.71,0.37,0
0.032853,0.0023109,0.03375,-0.00054504,0.0099615,-0.00021918,0,0,0.06185,-0.027317,0,-0.0011397,0,0,0,0.033752,-0.00054649,0.0099615,-0.36628,0.014389,0.030436,8.8775e-07,0.72,0.37,0
0.033471,0.0023448,0.033696,-0.00055896,0.009941,-0.00022193,0,0,0.061762,-0.0273,0,-0.001154,0,0,0,0.033697,-0.00056043,0.009941,-0.3713,0.014359,0.030399,8.8386e-07,0.73,0.37,0
0.034088,0.0023769,0.033645,-0.00057198,0.009922,-0.0002249,0,0,0.061681,-0.027284,0,-0.0011695,0,0,0,0.033647,-0.00057349,0.009922,-0.37667,0.014332,0.030365,8.8027e-07,0.74,0.37,0
0.034705,0.0024074,0.033599,-0.00058441,0.0099043,-0.00022783,0,0,0.061605,-0.027271,0,-0.0011847,0,0,0,0.0336,-0.00058596,0.0099043,-0.38195,0.014306,0.030333,8.7697e-07,0.75,0.37,0
0.03532,0.0024361,0.033556,-0.00059647,0.0098877,-0.00023047,0,0,0.061536,-0.027259,0,-0.0011985,0,0,0,0.033557,-0.00059806,0.0098877,-0.38672,0.014282,0.030305,8.7394e-07,0.76,0.37,0
0.035936,0.0024632,0.033516,-0.00060833,0.0098723,-0.00023261,0,0,0.061474,-0.02725,0,-0.0012096,0,0,0,0.033518,-0.00060994,0.0098723,-0.39061,0.01426,0.030279,8.7119e-07,0.77,0.37,0
0.03655,0.0024887,0.03348,-0.0006201,0.0098579,-0.00023405,0,0,0.061417,-0.027243,0,-0.0012171,0,0,0,0.033481,-0.00062172,0.0098579,-0.3933,0.014239,0.030257,8.687e-07,0.78,0.37,0
0.037164,0.0025126,0.033447,-0.00063182,0.0098445,-0.00023463,0,0,0.061366,-0.027238,0,-0.0012201,0,0,0,0.033448,-0.00063345,0.0098445,-0.39452,0.01422,0.030237,8.6645e-07,0.79,0.37,0
0.037777,0.002535,0.033417,-0.00064353,0.009832,-0.00023422,0,0,0.06132,-0.027236,0,-0.0012179,0,0,0,0.033418,-0.00064515,0.009832,-0.39403,0.014202,0.030219,8.6444e-07,0.8,0.37,0
0.03839,0.0025558,0.033389,-0.00065522,0.0098203,-0.00023271,0,0,0.06128,-0.027236,0,-0.0012101,0,0,0,0.033391,-0.00065682,0.0098203,-0.39167,0.014185,0.030204,8.6264e-07,0.81,0.37,0
0.039003,0.0025753,0.033365,-0.00066686,0.0098094,-0.00023002,0,0,0.061244,-0.027238,0,-0.0011961,0,0,0,0.033366,-0.00066843,0.0098094,-0.38729,0.014169,0.030192,8.6104e-07,0.82,0.37,0
0.039615,0.0025933,0.033342,-0.00067841,0.0097992,-0.0002261,0,0,0.061213,-0.027242,0,-0.0011757,0,0,0,0.033344,-0.00067992,0.0097992,-0.38081,0.014154,0.030181,8.5962e-07,0.83,0.37,0
0.040227,0.00261,0.033322,-0.00068981,0.0097898,-0.00022092,0,0,0.061185,-0.027247,0,-0.0011488,0,0,0,0.033324,-0.00069125,0.0097898,-0.37217,0.014141,0.030172,8.5837e-07,0.84,0.37,0
0.040839,0.0026254,0.033304,-0.00070098,0.009781,-0.00021446,0,0,0.061161,-0.027253,0,-0.0011152,0,0,0,0.033306,-0.00070234,0.009781,-0.36137,0.014128,0.030165,8.5727e-07,0.85,0.37,0
0.04145,0.0026395,0.033288,-0.00071186,0.0097729,-0.00020674,0,0,0.06114,-0.027261,0,-0.0010751,0,0,0,0.03329,-0.00071312,0.0097729,-0.34841,0.014116,0.030159,8.5631e-07,0.86,0.37,0
0.042062,0.0026524,0.033274,-0.00072238,0.0097655,-0.00019778,0,0,0.061122,-0.027268,0,-0.0010285,0,0,0,0.033275,-0.00072353,0.0097655,-0.33335,0.014106,0.030155,8.5547e-07,0.87,0.37,0
0.042673,0.0026642,0.033261,-0.00073245,0.0097586,-0.00018763,0,0,0.061107,-0.027277,0,-0.00097566,0,0,0,0.033262,-0.00073349,0.0097586,-0.31626,0.014096,0.030151,8.5474e-07,0.88,0.37,0
0.043284,0.0026748,0.03325,-0.000742,0.0097524,-0.00017633,0,0,0.061094,-0.027285,0,-0.0009169,0,0,0,0.033251,-0.00074292,0.0097524,-0.29723,0.014087,0.030149,8.5411e-07,0.89,0.37,0
0.043895,0.0026844,0.03324,-0.00075098,0.0097467,-0.00016394,0,0,0.061083,-0.027294,0,-0.00085251,0,0,0,0.033241,-0.00075177,0.0097467,-0.27636,0.014079,0.030147,8.5357e-07,0.9,0.37,0
0.044505,0.0026929,0.033231,-0.0007593,0.0097416,-0.00015056,0,0,0.061073,-0.027302,0,-0.00078289,0,0,0,0.033232,-0.00075997,0.0097416,-0.2538,0.014071,0.030146,8.531e-07,0.91,0.37,0
0.045116,0.0027005,0.033224,-0.00076691,0.0097371,-0.00013624,0,0,0.061065,-0.02731,0,-0.00070846,0,0,0,0.033224,-0.00076746,0.0097371,-0.22967,0.014065,0.030145,8.5271e-07,0.92,0.37,0
0.045727,0.002707,0.033217,-0.00077376,0.0097331,-0.00012109,0,0,0.061059,-0.027318,0,-0.00062969,0,0,0,0.033218,-0.0007742,0.0097331,-0.20413,0.014059,0.030145,8.5238e-07,0.93,0.37,0
0.046337,0.0027127,0.033212,-0.0007798,0.0097296,-0.0001052,0,0,0.061054,-0.027324,0,-0.00054705,0,0,0,0.033212,-0.00078013,0.0097296,-0.17734,0.014054,0.030144,8.5211e-07,0.94,0.37,0
0.046948,0.0027174,0.033207,-0.00078497,0.0097267,-8.8666e-05,0,0,0.06105,-0.02733,0,-0.00046106,0,0,0,0.033208,-0.00078521,0.0097267,-0.14946,0.01405,0.030144,8.5188e-07,0.95,0.37,0
0.047558,0.0027212,0.033204,-0.00078926,0.0097243,-7.159e-05,0,0,0.061046,-0.027335,0,-0.00037227,0,0,0,0.033204,-0.00078942,0.0097243,-0.12067,0.014046,0.030144,8.5171e-07,0.96,0.37,0
0.048169,0.0027242,0.033201,-0.00079262,0.0097225,-5.4077e-05,0,0,0.061044,-0.027339,0,-0.0002812,0,0,0,0.033201,-0.00079271,0.0097225,-0.091152,0.014044,0.030145,8.5158e-07,0.97,0.37,0
0.048779,0.0027263,0.033199,-0.00079504,0.0097212,-3.6235e-05,0,0,0.061042,-0.027342,0,-0.00018842,0,0,0,0.033199,-0.00079509,0.0097212,-0.061077,0.014042,0.030145,8.5148e-07,0.98,0.37,0
0.04939,0.0027276,0.033198,-0.0007965,0.0097204,-1.6161e-05,0,0,0.061041,-0.027344,0,-8.4035e-05,0,0,0,0.033198,-0.00079652,0.0097204,-0.02724,0.014041,0.030145,8.5143e-07,0.99,0.37,0
0.049695,0.002728,0.033197,-0.00079699,0.0097201,-5.0765e-06,0,0,0.061041,-0.027345,0,-2.6398e-05,0,0,0,0.033197,-0.00079699,0.0097201,-0.0085571,0.01404,0.030145,8.5141e-07,1,0.37,0
0.00027155,3.8754e-05,0.036522,0.015323,0.015554,0.0014925,0,0,0.054518,-0.0005991,0,0.0077609,0,0,0,0.036628,0.015217,0.015554,4.0045,0.022466,0.021245,4.9211e-07,0,0.38,0
0.00054518,8.0051e-05,0.036566,0.015035,0.01548,0.001515,0,0,0.054823,-0.0011581,0,0.0078779,0,0,0,0.036673,0.014928,0.01548,4.0013,0.02236,0.021476,5.077e-07,0.01,0.38,0
0.0010965,0.0001676,0.03673,0.01453,0.015378,0.001578,0,0,0.055516,-0.0022047,0,0.0082054,0,0,0,0.036843,0.014418,0.015378,4.04,0.022213,0.021962,5.4082e-07,0.02,0.38,0
0.0016555,0.00026504,0.036974,0.014132,0.015332,0.0016583,0,0,0.05627,-0.0031197,0,0.0086234,0,0,0,0.037095,0.014011,0.015332,4.1252,0.022146,0.022453,5.7492e-07,0.03,0.38,0
0.0022219,0.00037277,0.037223,0.013802,0.015308,0.0017478,0,0,0.05698,-0.0039138,0,0.0090887,0,0,0,0.037354,0.013671,0.015308,4.2379,0.022111,0.022909,6.0728e-07,0.04,0.38,0
0.0027951,0.00049247,0.037474,0.013551,0.015307,0.0018821,0,0,0.057633,-0.0045673,0,0.0097868,0,0,0,0.037623,0.013402,0.015307,4.4619,0.022111,0.023327,6.3796e-07,0.05,0.38,0
0.0033745,0.00062912,0.038198,0.01331,0.015452,0.0019369,0,0,0.055694,-0.0050489,0,0.0096784,0,0,0,0.038354,0.013154,0.015452,4.4676,0.02232,0.024136,7.2438e-07,0.06,0.38,0
0.0039166,0.00076682,0.03846,0.013093,0.015466,0.0022998,0,0,0.048055,-0.0046639,0,0.0096628,0,0,0,0.038711,0.012842,0.015466,5.3393,0.02234,0.024667,8.0109e-07,0.07,0.38,0
0.0043465,0.00086229,0.037685,0.013002,0.015206,0.0030207,0,0,0.037907,-0.0035111,0,0.010314,0,0,0,0.038097,0.01259,0.015206,7.112,0.021965,0.024307,7.6031e-07,0.08,0.38,0
0.0046738,0.00090814,0.037638,0.012827,0.01514,0.0031284,0,0,0.03141,-0.0031234,0,0.0089965,0,0,0,0.038041,0.012424,0.01514,7.1638,0.021868,0.024374,7.2804e-07,0.09,0.38,0
0.0049705,0.00093574,0.037955,0.012354,0.015093,0.0027584,0,0,0.029721,-0.0035606,0,0.0071718,0,0,0,0.038252,0.012056,0.015093,6.0895,0.0218,0.024818,7.4628e-07,0.1,0.38,0
0.0052682,0.00095849,0.037835,0.011698,0.01486,0.0024727,0,0,0.029868,-0.0041109,0,0.0064291,0,0,0,0.038069,0.011463,0.01486,5.3655,0.021464,0.025082,7.6045e-07,0.11,0.38,0
0.0055678,0.00097529,0.037748,0.011004,0.014626,0.0022354,0,0,0.030059,-0.0047081,0,0.005812,0,0,0,0.037935,0.010817,0.014626,4.7511,0.021126,0.025429,7.8086e-07,0.12,0.38,0
0.0058694,0.0009873,0.037661,0.010321,0.014395,0.0020514,0,0,0.030246,-0.0052953,0,0.0053336,0,0,0,0.037815,0.010167,0.014395,4.2718,0.020792,0.025796,8.0217e-07,0.13,0.38,0
0.0061727,0.00099545,0.037568,0.0096546,0.014167,0.0018969,0,0,0.030422,-0.0058658,0,0.004932,0,0,0,0.037697,0.0095255,0.014167,3.8737,0.020463,0.026162,8.2279e-07,0.14,0.38,0
0.0064778,0.0010004,0.037472,0.0090031,0.013943,0.001763,0,0,0.030588,-0.0064212,0,0.0045838,0,0,0,0.037581,0.0088938,0.013943,3.5333,0.020139,0.026527,8.4262e-07,0.15,0.38,0
0.0067845,0.0010025,0.037375,0.0083737,0.013725,0.0016464,0,0,0.030746,-0.0069563,0,0.0042807,0,0,0,0.037469,0.00828,0.013725,3.2414,0.019825,0.026884,8.614e-07,0.16,0.38,0
0.0070927,0.0010023,0.037277,0.0077727,0.013515,0.0015436,0,0,0.030891,-0.0074649,0,0.0040135,0,0,0,0.037358,0.0076917,0.013515,2.9889,0.019522,0.027227,8.7866e-07,0.17,0.38,0
0.0074023,0.001,0.037176,0.0072027,0.013314,0.0014501,0,0,0.031021,-0.0079441,0,0.0037702,0,0,0,0.037246,0.0071323,0.013314,2.7651,0.019231,0.027549,8.9411e-07,0.18,0.38,0
0.0077132,0.00099588,0.037072,0.0066625,0.01312,0.0013613,0,0,0.031137,-0.0083951,0,0.0035393,0,0,0,0.037133,0.0066013,0.01312,2.5596,0.018951,0.027851,9.0775e-07,0.19,0.38,0
0.0080251,0.00099001,0.036966,0.0061482,0.012934,0.001274,0,0,0.031241,-0.0088217,0,0.0033124,0,0,0,0.037019,0.0060953,0.012934,2.3647,0.018683,0.028135,9.1982e-07,0.2,0.38,0
0.008338,0.00098243,0.03686,0.0056552,0.012755,0.0011866,0,0,0.031337,-0.0092292,0,0.0030852,0,0,0,0.036905,0.0056098,0.012755,2.176,0.018423,0.028406,9.3071e-07,0.21,0.38,0
0.0086518,0.00097314,0.036757,0.0051786,0.012581,0.0010988,0,0,0.031429,-0.0096227,0,0.0028568,0,0,0,0.036795,0.00514,0.012581,1.9917,0.018172,0.028669,9.4081e-07,0.22,0.38,0
0.0089666,0.00096214,0.036658,0.0047139,0.012412,0.0010111,0,0,0.03152,-0.010007,0,0.0026288,0,0,0,0.03669,0.0046816,0.012412,1.8123,0.017928,0.028929,9.5048e-07,0.23,0.38,0
0.0092822,0.0009494,0.036565,0.0042577,0.012247,0.00092472,0,0,0.031614,-0.010386,0,0.0024043,0,0,0,0.036592,0.0042309,0.012247,1.6393,0.01769,0.029191,9.6e-07,0.24,0.38,0
0.0095988,0.00093492,0.036479,0.003807,0.012086,0.00084107,0,0,0.031711,-0.010762,0,0.0021868,0,0,0,0.036501,0.0037851,0.012086,1.4747,0.017457,0.029456,9.696e-07,0.25,0.38,0
0.0099164,0.00091871,0.0364,0.0033597,0.011928,0.00076151,0,0,0.031814,-0.011139,0,0.0019799,0,0,0,0.036418,0.0033419,0.011928,1.3206,0.017229,0.029728,9.7942e-07,0.26,0.38,0
0.010235,0.00090078,0.03633,0.0029141,0.011773,0.00068727,0,0,0.031924,-0.011517,0,0.0017869,0,0,0,0.036344,0.0028998,0.011773,1.1786,0.017006,0.030009,9.896e-07,0.27,0.38,0
0.010555,0.00088117,0.036269,0.002469,0.011621,0.0006194,0,0,0.032042,-0.011898,0,0.0016104,0,0,0,0.03628,0.0024575,0.011621,1.0502,0.016786,0.030299,1.0002e-06,0.28,0.38,0
0.010876,0.0008599,0.036217,0.0020234,0.011472,0.00055864,0,0,0.032168,-0.012283,0,0.0014525,0,0,0,0.036226,0.0020142,0.011472,0.93638,0.016571,0.0306,1.0114e-06,0.29,0.38,0
0.011198,0.00083702,0.036176,0.0015769,0.011326,0.00050542,0,0,0.032305,-0.012674,0,0.0013141,0,0,0,0.036183,0.0015695,0.011326,0.83727,0.016359,0.030913,1.0232e-06,0.3,0.38,0
0.011522,0.00081252,0.036146,0.0011291,0.011183,0.00045965,0,0,0.032453,-0.01307,0,0.0011951,0,0,0,0.036153,0.0011231,0.011183,0.75236,0.016153,0.031239,1.0358e-06,0.31,0.38,0
0.011847,0.00078642,0.036131,0.00068004,0.011043,0.00042064,0,0,0.032614,-0.013472,0,0.0010937,0,0,0,0.036136,0.00067503,0.011043,0.68011,0.015951,0.03158,1.0492e-06,0.32,0.38,0
0.012174,0.00075866,0.036131,0.00023021,0.010908,0.00038676,0,0,0.032789,-0.013882,0,0.0010056,0,0,0,0.036135,0.00022602,0.010908,0.61754,0.015757,0.031937,1.0638e-06,0.33,0.38,0
0.012503,0.00072915,0.03615,-0.00021896,0.010779,0.00035507,0,0,0.032982,-0.014298,0,0.00092319,0,0,0,0.036153,-0.00022246,0.010779,0.55975,0.01557,0.032312,1.0797e-06,0.34,0.38,0
0.012834,0.0006977,0.036189,-0.00066441,0.010657,0.0003208,0,0,0.033191,-0.014718,0,0.00083407,0,0,0,0.036192,-0.00066726,0.010657,0.49924,0.015394,0.032703,1.097e-06,0.35,0.38,0
0.013167,0.000664,0.036251,-0.0011,0.010545,0.00027684,0,0,0.033418,-0.015139,0,0.00071978,0,0,0,0.036254,-0.0011021,0.010545,0.42536,0.015232,0.033106,1.1158e-06,0.36,0.38,0
0.013502,0.00062761,0.036334,-0.0015137,0.010446,0.00021393,0,0,0.033655,-0.015548,0,0.00055622,0,0,0,0.036336,-0.0015151,0.010446,0.32478,0.015089,0.033512,1.1356e-06,0.37,0.38,0
0.01384,0.00058793,0.03643,-0.0018835,0.010364,0.00012275,0,0,0.033886,-0.015922,0,0.00031914,0,0,0,0.036431,-0.0018842,0.010364,0.1846,0.01497,0.033894,1.1552e-06,0.38,0.38,0
0.01418,0.00054432,0.036524,-0.0021721,0.010305,-2.7848e-08,0,0,0.034084,-0.016221,0,-7.2111e-08,0,0,0,0.036524,-0.0021725,0.010305,0.00082435,0.014886,0.034209,1.1722e-06,0.39,0.38,0
0.014522,0.00049631,0.036595,-0.0023287,0.01028,-0.00014129,0,0,0.03421,-0.016391,0,-0.00036736,0,0,0,0.036596,-0.0023296,0.01028,-0.20764,0.014849,0.0344,1.1834e-06,0.4,0.38,0
0.014864,0.00044403,0.036627,-0.0023066,0.010296,-0.00026314,0,0,0.03423,-0.016384,0,-0.00068417,0,0,0,0.036629,-0.0023085,0.010296,-0.38743,0.014872,0.034412,1.186e-06,0.41,0.38,0
0.015206,0.00038868,0.036607,-0.0021021,0.010352,-0.00030468,0,0,0.034132,-0.01619,0,-0.00079216,0,0,0,0.03661,-0.0021045,0.010352,-0.45095,0.014952,0.03423,1.1784e-06,0.42,0.38,0
0.015547,0.00033279,0.036535,-0.00178,0.010426,-0.00020289,0,0,0.033941,-0.015868,0,-0.00052751,0,0,0,0.036537,-0.0017817,0.010426,-0.30238,0.01506,0.033905,1.1623e-06,0.43,0.38,0
0.015885,0.00028,0.036434,-0.0014852,0.010485,5.8586e-05,0,0,0.033735,-0.015561,0,0.00015232,0,0,0,0.036436,-0.0014872,0.010485,0.091113,0.015145,0.033579,1.145e-06,0.44,0.38,0
0.016222,0.00023212,0.035794,-0.0012571,0.010361,0.00048553,0,0,0.035438,-0.015987,0,0.0016466,0,0,0,0.035812,-0.0012752,0.010361,0.82338,0.014966,0.03286,1.1038e-06,0.45,0.38,0
0.01659,0.00020331,0.035437,-0.00094096,0.010349,0.00076296,0,0,0.041971,-0.018424,0,0.0029406,0,0,0,0.035474,-0.00097808,0.010349,1.3556,0.014948,0.032329,1.1181e-06,0.46,0.38,0
0.01706,0.00023955,0.036477,-0.00051391,0.010789,0.00060106,0,0,0.051983,-0.022515,0,0.0025593,0,0,0,0.036503,-0.00054059,0.010789,1.0653,0.015584,0.032886,1.2327e-06,0.47,0.38,0
0.017644,0.00036396,0.036944,0.00015386,0.011129,0.0004384,0,0,0.060208,-0.02541,0,0.0021662,0,0,0,0.036954,0.00014371,0.011129,0.73534,0.016076,0.032732,1.2215e-06,0.48,0.38,0
0.018279,0.00052619,0.036202,0.00093458,0.011141,0.00043721,0,0,0.063663,-0.025856,0,0.0022832,0,0,0,0.036209,0.00092753,0.011141,0.72007,0.016092,0.031445,1.073e-06,0.49,0.38,0
0.018921,0.00067213,0.035736,0.0012635,0.0111,0.00030719,0,0,0.064053,-0.025574,0,0.0015974,0,0,0,0.03574,0.0012595,0.0111,0.50667,0.016033,0.030764,9.9672e-07,0.5,0.38,0
0.019561,0.00079536,0.035611,0.0012285,0.011052,0.00012576,0,0,0.063855,-0.025541,0,0.00065396,0,0,0,0.035613,0.0012274,0.011052,0.20786,0.015964,0.030676,9.8653e-07,0.51,0.38,0
0.020198,0.0009036,0.035496,0.0011302,0.010988,-3.942e-07,0,0,0.063721,-0.02563,0,-2.0492e-06,0,0,0,0.035496,0.0011299,0.010988,-0.0014301,0.015871,0.03065,9.7973e-07,0.52,0.38,0
0.020835,0.00099992,0.035391,0.0009726,0.010909,-9.644e-05,0,0,0.063653,-0.025835,0,-0.00050149,0,0,0,0.035392,0.00097212,0.010909,-0.16094,0.015758,0.030683,9.7601e-07,0.53,0.38,0
0.021471,0.0010866,0.035305,0.00079331,0.01083,-0.00016113,0,0,0.063637,-0.026094,0,-0.00083787,0,0,0,0.035306,0.00079243,0.01083,-0.26785,0.015643,0.030749,9.7458e-07,0.54,0.38,0
0.022108,0.0011656,0.035227,0.00061391,0.010752,-0.00019867,0,0,0.063635,-0.02636,0,-0.0010331,0,0,0,0.035228,0.00061268,0.010752,-0.32925,0.015531,0.030823,9.7373e-07,0.55,0.38,0
0.022744,0.0012387,0.035149,0.0004449,0.010678,-0.00021622,0,0,0.063624,-0.026607,0,-0.0011244,0,0,0,0.035151,0.00044346,0.010678,-0.35739,0.015424,0.030889,9.7248e-07,0.56,0.38,0
0.02338,0.0013068,0.035068,0.00029122,0.010608,-0.00022022,0,0,0.063596,-0.026823,0,-0.0011451,0,0,0,0.035069,0.00028972,0.010608,-0.36324,0.015322,0.030939,9.7041e-07,0.57,0.38,0
0.024016,0.0013711,0.034983,0.00015477,0.010541,-0.00021558,0,0,0.063548,-0.027005,0,-0.001121,0,0,0,0.034984,0.00015332,0.010541,-0.35508,0.015226,0.030972,9.6745e-07,0.58,0.38,0
0.024651,0.0014322,0.034894,3.5737e-05,0.010479,-0.00020595,0,0,0.06348,-0.027152,0,-0.001071,0,0,0,0.034896,3.4398e-05,0.010479,-0.33892,0.015136,0.030988,9.6364e-07,0.59,0.38,0
0.025286,0.0014905,0.034803,-6.6663e-05,0.010421,-0.00019393,0,0,0.063394,-0.027268,0,-0.0010085,0,0,0,0.034805,-6.787e-05,0.010421,-0.31903,0.015053,0.030989,9.5912e-07,0.6,0.38,0
0.025919,0.0015464,0.034711,-0.00015375,0.010367,-0.00018138,0,0,0.063294,-0.027354,0,-0.00094319,0,0,0,0.034712,-0.00015483,0.010367,-0.29842,0.014975,0.030976,9.5403e-07,0.61,0.38,0
0.026551,0.0016001,0.034618,-0.00022713,0.010317,-0.00016959,0,0,0.063182,-0.027416,0,-0.00088187,0,0,0,0.034619,-0.00022808,0.010317,-0.27916,0.014903,0.030953,9.4853e-07,0.62,0.38,0
0.027183,0.0016519,0.034526,-0.00028848,0.010271,-0.0001594,0,0,0.063063,-0.027455,0,-0.0008289,0,0,0,0.034527,-0.00028933,0.010271,-0.26261,0.014836,0.03092,9.4274e-07,0.63,0.38,0
0.027813,0.0017018,0.034436,-0.0003395,0.010229,-0.00015134,0,0,0.062938,-0.027478,0,-0.00078695,0,0,0,0.034437,-0.00034028,0.010229,-0.24959,0.014775,0.03088,9.3681e-07,0.64,0.38,0
0.028441,0.0017499,0.034348,-0.0003818,0.01019,-0.00014564,0,0,0.062811,-0.027486,0,-0.00075731,0,0,0,0.034348,-0.00038253,0.01019,-0.24049,0.014719,0.030835,9.3084e-07,0.65,0.38,0
0.029069,0.0017963,0.034263,-0.00041689,0.010154,-0.00014235,0,0,0.062683,-0.027484,0,-0.00074024,0,0,0,0.034263,-0.00041757,0.010154,-0.23539,0.014667,0.030788,9.2494e-07,0.66,0.38,0
0.029695,0.0018408,0.034181,-0.00044609,0.01012,-0.00014139,0,0,0.062557,-0.027473,0,-0.00073523,0,0,0,0.034182,-0.00044676,0.01012,-0.23413,0.014618,0.030739,9.1918e-07,0.67,0.38,0
0.03032,0.0018837,0.034103,-0.0004706,0.01009,-0.00014254,0,0,0.062435,-0.027457,0,-0.00074119,0,0,0,0.034104,-0.00047128,0.01009,-0.23637,0.014574,0.030689,9.1363e-07,0.68,0.38,0
0.030944,0.0019248,0.03403,-0.00049147,0.010061,-0.00014552,0,0,0.062317,-0.027438,0,-0.00075668,0,0,0,0.03403,-0.00049215,0.010061,-0.24166,0.014533,0.030641,9.0833e-07,0.69,0.38,0
0.031566,0.0019641,0.033961,-0.00050955,0.010035,-0.00015,0,0,0.062206,-0.027417,0,-0.00077998,0,0,0,0.033961,-0.00051027,0.010035,-0.24945,0.014495,0.030594,9.0332e-07,0.7,0.38,0
0.032188,0.0020016,0.033896,-0.00052559,0.010011,-0.00015563,0,0,0.0621,-0.027395,0,-0.00080928,0,0,0,0.033897,-0.00052635,0.010011,-0.25917,0.01446,0.030549,8.9863e-07,0.71,0.38,0
0.032808,0.0020374,0.033835,-0.00054018,0.0099886,-0.00016207,0,0,0.062002,-0.027375,0,-0.00084274,0,0,0,0.033836,-0.00054099,0.0099886,-0.27023,0.014428,0.030507,8.9426e-07,0.72,0.38,0
0.033428,0.0020715,0.03378,-0.0005538,0.0099677,-0.00016895,0,0,0.061911,-0.027356,0,-0.00087854,0,0,0,0.03378,-0.00055468,0.0099677,-0.28204,0.014398,0.030469,8.9023e-07,0.73,0.38,0
0.034047,0.0021038,0.033728,-0.00056682,0.0099483,-0.00017596,0,0,0.061827,-0.027339,0,-0.00091499,0,0,0,0.033729,-0.00056776,0.0099483,-0.29405,0.01437,0.030433,8.8653e-07,0.74,0.38,0
0.034664,0.0021344,0.03368,-0.00057952,0.0099303,-0.00018279,0,0,0.06175,-0.027325,0,-0.0009505,0,0,0,0.033681,-0.00058053,0.0099303,-0.30576,0.014344,0.030401,8.8316e-07,0.75,0.38,0
0.035282,0.0021632,0.033637,-0.0005921,0.0099134,-0.00018916,0,0,0.061681,-0.027314,0,-0.00098365,0,0,0,0.033638,-0.00059317,0.0099134,-0.31671,0.014319,0.030373,8.801e-07,0.76,0.38,0
0.035898,0.0021904,0.033597,-0.00060469,0.0098977,-0.00019485,0,0,0.061618,-0.027306,0,-0.0010132,0,0,0,0.033598,-0.00060582,0.0098977,-0.32647,0.014297,0.030348,8.7734e-07,0.77,0.38,0
0.036514,0.0022159,0.033561,-0.00061735,0.0098831,-0.00019964,0,0,0.061562,-0.027301,0,-0.0010381,0,0,0,0.033562,-0.00061854,0.0098831,-0.33472,0.014276,0.030326,8.7486e-07,0.78,0.38,0
0.037129,0.0022399,0.033528,-0.00063013,0.0098694,-0.00020336,0,0,0.061513,-0.027299,0,-0.0010575,0,0,0,0.033529,-0.00063136,0.0098694,-0.34116,0.014256,0.030307,8.7265e-07,0.79,0.38,0
0.037744,0.0022623,0.033498,-0.00064301,0.0098566,-0.00020588,0,0,0.061468,-0.027299,0,-0.0010706,0,0,0,0.0335,-0.00064427,0.0098566,-0.34555,0.014237,0.030291,8.7069e-07,0.8,0.38,0
0.038359,0.0022831,0.033471,-0.00065596,0.0098446,-0.0002071,0,0,0.06143,-0.027302,0,-0.0010769,0,0,0,0.033473,-0.00065723,0.0098446,-0.34773,0.01422,0.030277,8.6895e-07,0.81,0.38,0
0.038973,0.0023025,0.033447,-0.00066893,0.0098335,-0.00020693,0,0,0.061396,-0.027306,0,-0.0010761,0,0,0,0.033448,-0.00067019,0.0098335,-0.34756,0.014204,0.030266,8.6741e-07,0.82,0.38,0
0.039587,0.0023205,0.033425,-0.00068183,0.0098231,-0.00020534,0,0,0.061366,-0.027313,0,-0.0010678,0,0,0,0.033427,-0.00068307,0.0098231,-0.34497,0.014189,0.030257,8.6607e-07,0.83,0.38,0
0.0402,0.0023371,0.033406,-0.0006946,0.0098134,-0.0002023,0,0,0.061341,-0.027321,0,-0.001052,0,0,0,0.033407,-0.0006958,0.0098134,-0.33993,0.014175,0.03025,8.6489e-07,0.84,0.38,0
0.040813,0.0023524,0.033388,-0.00070714,0.0098044,-0.00019781,0,0,0.061319,-0.02733,0,-0.0010286,0,0,0,0.03339,-0.00070829,0.0098044,-0.33243,0.014162,0.030244,8.6387e-07,0.85,0.38,0
0.041426,0.0023665,0.033373,-0.00071936,0.0097961,-0.0001919,0,0,0.0613,-0.02734,0,-0.00099786,0,0,0,0.033374,-0.00072044,0.0097961,-0.32252,0.01415,0.03024,8.6298e-07,0.86,0.38,0
0.042039,0.0023793,0.033359,-0.00073117,0.0097884,-0.00018459,0,0,0.061284,-0.027351,0,-0.00095987,0,0,0,0.03336,-0.00073217,0.0097884,-0.31026,0.014139,0.030237,8.6221e-07,0.87,0.38,0
0.042652,0.002391,0.033347,-0.00074248,0.0097813,-0.00017595,0,0,0.06127,-0.027362,0,-0.00091493,0,0,0,0.033348,-0.0007434,0.0097813,-0.29574,0.014129,0.030235,8.6156e-07,0.88,0.38,0
0.043265,0.0024015,0.033336,-0.00075322,0.0097749,-0.00016604,0,0,0.061259,-0.027373,0,-0.00086339,0,0,0,0.033337,-0.00075403,0.0097749,-0.27908,0.014119,0.030234,8.6099e-07,0.89,0.38,0
0.043877,0.002411,0.033327,-0.00076329,0.009769,-0.00015493,0,0,0.06125,-0.027384,0,-0.00080564,0,0,0,0.033327,-0.000764,0.009769,-0.26041,0.014111,0.030234,8.6051e-07,0.9,0.38,0
0.04449,0.0024194,0.033318,-0.00077263,0.0097637,-0.00014272,0,0,0.061242,-0.027395,0,-0.00074212,0,0,0,0.033319,-0.00077323,0.0097637,-0.23987,0.014103,0.030234,8.6011e-07,0.91,0.38,0
0.045102,0.0024269,0.033311,-0.00078117,0.009759,-0.00012949,0,0,0.061236,-0.027404,0,-0.00067334,0,0,0,0.033312,-0.00078167,0.009759,-0.21763,0.014096,0.030234,8.5977e-07,0.92,0.38,0
0.045715,0.0024334,0.033305,-0.00078885,0.0097549,-0.00011535,0,0,0.061231,-0.027414,0,-0.0005998,0,0,0,0.033306,-0.00078924,0.0097549,-0.19385,0.01409,0.030235,8.5949e-07,0.93,0.38,0
0.046327,0.0024389,0.0333,-0.0007956,0.0097513,-0.0001004,0,0,0.061227,-0.027422,0,-0.00052206,0,0,0,0.0333,-0.0007959,0.0097513,-0.16872,0.014085,0.030235,8.5926e-07,0.94,0.38,0
0.046939,0.0024436,0.033296,-0.0008014,0.0097483,-8.4745e-05,0,0,0.061223,-0.027429,0,-0.00044067,0,0,0,0.033296,-0.00080162,0.0097483,-0.14241,0.014081,0.030236,8.5907e-07,0.95,0.38,0
0.047551,0.0024474,0.033292,-0.0008062,0.0097458,-6.8507e-05,0,0,0.061221,-0.027435,0,-0.00035624,0,0,0,0.033292,-0.00080634,0.0097458,-0.11512,0.014077,0.030237,8.5892e-07,0.96,0.38,0
0.048163,0.0024503,0.03329,-0.00080996,0.0097439,-5.1796e-05,0,0,0.061219,-0.02744,0,-0.00026934,0,0,0,0.03329,-0.00081005,0.0097439,-0.087036,0.014075,0.030237,8.5881e-07,0.97,0.38,0
0.048776,0.0024524,0.033288,-0.00081267,0.0097426,-3.4729e-05,0,0,0.061218,-0.027444,0,-0.00018059,0,0,0,0.033288,-0.00081271,0.0097426,-0.058356,0.014073,0.030238,8.5873e-07,0.98,0.38,0
0.049388,0.0024536,0.033287,-0.0008143,0.0097417,-1.5443e-05,0,0,0.061217,-0.027446,0,-8.0306e-05,0,0,0,0.033287,-0.00081431,0.0097417,-0.02595,0.014071,0.030238,8.5869e-07,0.99,0.38,0
0.049694,0.002454,0.033286,-0.00081484,0.0097415,-4.7655e-06,0,0,0.061217,-0.027446,0,-2.4781e-05,0,0,0,0.033286,-0.00081485,0.0097415,-0.0080077,0.014071,0.030238,8.5867e-07,1,0.38,0
0.00026885,3.2978e-05,0.036161,0.015197,0.015407,0.0012688,0,0,0.05396,-0.00054816,0,0.0065976,0,0,0,0.036239,0.015119,0.015407,3.4475,0.022255,0.020978,4.739e-07,0,0.39,0
0.0005396,6.8853e-05,0.0362,0.014928,0.015338,0.0012914,0,0,0.05424,-0.0010669,0,0.0067152,0,0,0,0.036279,0.014849,0.015338,3.457,0.022156,0.021191,4.8799e-07,0.01,0.39,0
0.0010848,0.0001462,0.036344,0.014449,0.015238,0.0013546,0,0,0.054876,-0.0020514,0,0.0070442,0,0,0,0.036429,0.014365,0.015238,3.5211,0.02201,0.021642,5.18e-07,0.02,0.39,0
0.0016371,0.0002346,0.036551,0.01405,0.01518,0.001434,0,0,0.055563,-0.0029386,0,0.0074568,0,0,0,0.036642,0.013958,0.01518,3.6264,0.021927,0.022099,5.4891e-07,0.03,0.39,0
0.0021961,0.00033442,0.036738,0.013691,0.015129,0.0015256,0,0,0.056184,-0.0037386,0,0.0079331,0,0,0,0.036839,0.013589,0.015129,3.765,0.021852,0.02252,5.7767e-07,0.04,0.39,0
0.0027608,0.00044757,0.036878,0.013357,0.015071,0.0016772,0,0,0.056699,-0.0044547,0,0.0087213,0,0,0,0.036998,0.013237,0.015071,4.0527,0.021769,0.0229,6.0378e-07,0.05,0.39,0
0.00333,0.00057875,0.03728,0.013,0.015084,0.0018214,0,0,0.056445,-0.0052308,0,0.0093514,0,0,0,0.037418,0.012861,0.015084,4.2894,0.021788,0.023526,6.6183e-07,0.06,0.39,0
0.0038935,0.00071887,0.037461,0.012623,0.015025,0.0021589,0,0,0.052116,-0.0053685,0,0.010034,0,0,0,0.037675,0.012409,0.015025,5.041,0.021703,0.02407,7.1854e-07,0.07,0.39,0
0.0043778,0.00082636,0.037078,0.012586,0.014899,0.0027616,0,0,0.041792,-0.0041673,0,0.010341,0,0,0,0.037425,0.012239,0.014899,6.4984,0.021521,0.023974,7.0328e-07,0.08,0.39,0
0.0047289,0.00087845,0.03723,0.01282,0.015015,0.0029949,0,0,0.032249,-0.0030907,0,0.008834,0,0,0,0.037605,0.012445,0.015015,6.947,0.021688,0.023982,6.8837e-07,0.09,0.39,0
0.0050207,0.00090223,0.037692,0.012592,0.015085,0.0027797,0,0,0.029389,-0.0032411,0,0.0072271,0,0,0,0.037999,0.012285,0.015085,6.2543,0.02179,0.024436,7.1699e-07,0.1,0.39,0
0.0053167,0.00091865,0.037794,0.011902,0.014909,0.0025322,0,0,0.029751,-0.0039093,0,0.0065838,0,0,0,0.038041,0.011654,0.014909,5.5418,0.021535,0.024921,7.4929e-07,0.11,0.39,0
0.0056157,0.00092906,0.037767,0.011182,0.014685,0.002332,0,0,0.030007,-0.0045537,0,0.0060633,0,0,0,0.037971,0.010977,0.014685,4.9808,0.021211,0.025345,7.7603e-07,0.12,0.39,0
0.0059168,0.00093505,0.037679,0.010491,0.014451,0.0021576,0,0,0.030197,-0.005148,0,0.0056098,0,0,0,0.037851,0.01032,0.014451,4.514,0.020874,0.025716,7.9777e-07,0.13,0.39,0
0.0062196,0.00093742,0.037569,0.0098049,0.014212,0.0019988,0,0,0.030364,-0.0057296,0,0.0051969,0,0,0,0.037713,0.0096609,0.014212,4.1008,0.020529,0.026077,8.1781e-07,0.14,0.39,0
0.0065241,0.0009367,0.037462,0.0091293,0.013977,0.0018605,0,0,0.03053,-0.0063023,0,0.0048374,0,0,0,0.037584,0.009007,0.013977,3.7446,0.020189,0.026445,8.3768e-07,0.15,0.39,0
0.0068302,0.00093343,0.037359,0.0084801,0.013752,0.0017445,0,0,0.030689,-0.006853,0,0.0045357,0,0,0,0.037464,0.0083745,0.013752,3.4471,0.019863,0.026809,8.5679e-07,0.16,0.39,0
0.0071379,0.00092808,0.037256,0.0078664,0.013537,0.0016456,0,0,0.030835,-0.0073712,0,0.0042785,0,0,0,0.037348,0.0077741,0.013537,3.197,0.019553,0.027156,8.7422e-07,0.17,0.39,0
0.0074469,0.000921,0.037149,0.0072907,0.013332,0.0015562,0,0,0.030963,-0.0078538,0,0.0040462,0,0,0,0.037231,0.0072094,0.013332,2.9774,0.019257,0.027477,8.8954e-07,0.18,0.39,0
0.0077571,0.00091237,0.037041,0.0067495,0.013137,0.0014699,0,0,0.031075,-0.0083038,0,0.0038218,0,0,0,0.037112,0.006678,0.013137,2.7733,0.018976,0.027774,9.0284e-07,0.19,0.39,0
0.0080684,0.00090223,0.036932,0.0062368,0.012951,0.0013825,0,0,0.031175,-0.0087278,0,0.0035944,0,0,0,0.036994,0.0061743,0.012951,2.5752,0.018706,0.028053,9.1454e-07,0.2,0.39,0
0.0083806,0.00089059,0.036825,0.0057459,0.012771,0.0012922,0,0,0.03127,-0.0091329,0,0.0033598,0,0,0,0.036879,0.0056919,0.012771,2.3784,0.018447,0.028319,9.2517e-07,0.21,0.39,0
0.0086938,0.00087737,0.036723,0.0052705,0.012598,0.0011994,0,0,0.031362,-0.0095257,0,0.0031184,0,0,0,0.036769,0.0052245,0.012598,2.1822,0.018197,0.02858,9.3522e-07,0.22,0.39,0
0.0090079,0.00086251,0.036627,0.0048058,0.01243,0.0011052,0,0,0.031457,-0.0099115,0,0.0028734,0,0,0,0.036666,0.0047671,0.01243,1.9881,0.017954,0.028842,9.451e-07,0.23,0.39,0
0.0093229,0.00084596,0.03654,0.0043479,0.012266,0.0010112,0,0,0.031556,-0.010294,0,0.0026292,0,0,0,0.036572,0.0043158,0.012266,1.7987,0.017718,0.029108,9.5509e-07,0.24,0.39,0
0.009639,0.00082769,0.036462,0.0038939,0.012107,0.00091929,0,0,0.031662,-0.010677,0,0.0023901,0,0,0,0.036488,0.0038678,0.012107,1.6168,0.017488,0.029381,9.6539e-07,0.25,0.39,0
0.0099562,0.00080767,0.036393,0.003442,0.011951,0.00083093,0,0,0.031775,-0.011061,0,0.0021604,0,0,0,0.036414,0.0034209,0.011951,1.4447,0.017262,0.029663,9.7614e-07,0.26,0.39,0
0.010275,0.00078591,0.036334,0.0029907,0.011797,0.00074744,0,0,0.031898,-0.011449,0,0.0019433,0,0,0,0.036351,0.0029738,0.011797,1.2845,0.017041,0.029957,9.8744e-07,0.27,0.39,0
0.010594,0.00076243,0.036285,0.002539,0.011647,0.00066977,0,0,0.03203,-0.011841,0,0.0017414,0,0,0,0.036299,0.0025256,0.011647,1.1375,0.016824,0.030262,9.9937e-07,0.28,0.39,0
0.010915,0.00073725,0.036248,0.0020864,0.0115,0.00059849,0,0,0.032172,-0.012238,0,0.0015561,0,0,0,0.036258,0.0020758,0.0115,1.0042,0.016611,0.03058,1.012e-06,0.29,0.39,0
0.011238,0.00071039,0.036222,0.0016327,0.011356,0.00053376,0,0,0.032325,-0.012641,0,0.0013878,0,0,0,0.03623,0.0016244,0.011356,0.88459,0.016404,0.030911,1.0254e-06,0.3,0.39,0
0.011562,0.00068187,0.036209,0.0011782,0.011216,0.00047517,0,0,0.032491,-0.013049,0,0.0012354,0,0,0,0.036215,0.0011717,0.011216,0.77764,0.016201,0.031257,1.0396e-06,0.31,0.39,0
0.011887,0.00065167,0.03621,0.00072354,0.01108,0.00042165,0,0,0.032669,-0.013464,0,0.0010963,0,0,0,0.036215,0.00071848,0.01108,0.68125,0.016005,0.031616,1.0548e-06,0.32,0.39,0
0.012215,0.00061976,0.036227,0.00027023,0.010949,0.00037123,0,0,0.032861,-0.013883,0,0.0009652,0,0,0,0.036231,0.00026635,0.010949,0.59204,0.015816,0.031991,1.071e-06,0.33,0.39,0
0.012545,0.00058605,0.036261,-0.000179,0.010825,0.00032087,0,0,0.033068,-0.014305,0,0.00083426,0,0,0,0.036264,-0.0001819,0.010825,0.50507,0.015636,0.032378,1.0884e-06,0.34,0.39,0
0.012876,0.00055037,0.036313,-0.00061942,0.010708,0.00026624,0,0,0.033287,-0.014726,0,0.00069222,0,0,0,0.036315,-0.00062144,0.010708,0.41369,0.015467,0.032775,1.1068e-06,0.35,0.39,0
0.01321,0.0005125,0.036382,-0.0010429,0.010602,0.00020192,0,0,0.033514,-0.015138,0,0.00052499,0,0,0,0.036383,-0.0010442,0.010602,0.30989,0.015314,0.033175,1.1259e-06,0.36,0.39,0
0.013547,0.00047212,0.036463,-0.0014363,0.010508,0.00012236,0,0,0.033742,-0.015528,0,0.00031813,0,0,0,0.036464,-0.0014369,0.010508,0.18581,0.015178,0.033562,1.1452e-06,0.37,0.39,0
0.013885,0.00042888,0.036549,-0.0017789,0.010431,2.4398e-05,0,0,0.033953,-0.015873,0,6.3434e-05,0,0,0,0.036549,-0.0017791,0.010431,0.037258,0.015067,0.033914,1.1633e-06,0.38,0.39,0
0.014226,0.00038247,0.036627,-0.0020424,0.010375,-8.818e-05,0,0,0.034127,-0.016143,0,-0.00022927,0,0,0,0.036628,-0.0020429,0.010375,-0.13008,0.014987,0.034197,1.1783e-06,0.39,0.39,0
0.014568,0.00033286,0.036686,-0.0021955,0.010347,-0.00019929,0,0,0.03424,-0.016305,0,-0.00051815,0,0,0,0.036687,-0.0021967,0.010347,-0.29344,0.014946,0.034374,1.1884e-06,0.4,0.39,0
0.014911,0.00028049,0.036718,-0.0022166,0.01035,-0.00027748,0,0,0.034278,-0.016337,0,-0.00072144,0,0,0,0.03672,-0.0022186,0.01035,-0.40833,0.014951,0.03442,1.1921e-06,0.41,0.39,0
0.015253,0.00022656,0.036732,-0.0021104,0.010387,-0.00028039,0,0,0.034249,-0.016246,0,-0.00072902,0,0,0,0.036734,-0.0021124,0.010387,-0.41346,0.015003,0.034347,1.1905e-06,0.42,0.39,0
0.015595,0.00017301,0.036771,-0.0019215,0.010455,-0.00017005,0,0,0.034211,-0.016089,0,-0.00044214,0,0,0,0.036773,-0.0019228,0.010455,-0.25102,0.015102,0.034228,1.1888e-06,0.43,0.39,0
0.015937,0.000122,0.036916,-0.001752,0.010549,2.6707e-05,0,0,0.034277,-0.015992,0,6.9436e-05,0,0,0,0.036917,-0.001753,0.010549,0.040423,0.015238,0.03422,1.198e-06,0.44,0.39,0
0.016281,7.2996e-05,0.036903,-0.0014971,0.010622,0.00032075,0,0,0.03484,-0.016037,0,0.00095856,0,0,0,0.036912,-0.0015055,0.010622,0.51406,0.015343,0.034016,1.2041e-06,0.45,0.39,0
0.016632,3.0167e-05,0.036629,-0.00098933,0.010692,0.00072016,0,0,0.03748,-0.016755,0,0.0024159,0,0,0,0.036656,-0.0010161,0.010692,1.2067,0.015444,0.033395,1.2107e-06,0.46,0.39,0
0.017026,2.9804e-05,0.037255,-0.0005983,0.010997,0.00081101,0,0,0.044617,-0.019348,0,0.0030605,0,0,0,0.03729,-0.0006331,0.010997,1.3885,0.015885,0.033658,1.3171e-06,0.47,0.39,0
0.01753,0.00011731,0.038133,-2.8555e-05,0.011431,0.00065619,0,0,0.055352,-0.023119,0,0.0031078,0,0,0,0.038161,-5.6284e-05,0.011431,1.1102,0.016512,0.033979,1.374e-06,0.48,0.39,0
0.018149,0.00026778,0.037502,0.0010216,0.011557,0.00069684,0,0,0.063395,-0.025382,0,0.0036794,0,0,0,0.037524,0.00099895,0.011557,1.1364,0.016693,0.032566,1.2062e-06,0.49,0.39,0
0.018806,0.00041521,0.036552,0.0015575,0.011433,0.00060617,0,0,0.065311,-0.025676,0,0.0031521,0,0,0,0.036567,0.0015428,0.011433,0.98448,0.016514,0.031275,1.0587e-06,0.5,0.39,0
0.019455,0.00053922,0.036166,0.0014639,0.011289,0.00033244,0,0,0.064681,-0.025545,0,0.0017287,0,0,0,0.036171,0.0014587,0.011289,0.54628,0.016306,0.03099,1.0264e-06,0.51,0.39,0
0.020099,0.00064682,0.035895,0.0012829,0.011153,0.00013936,0,0,0.064328,-0.025663,0,0.00072467,0,0,0,0.035896,0.0012815,0.011153,0.22998,0.01611,0.030886,1.0085e-06,0.52,0.39,0
0.020742,0.00074098,0.035726,0.0010639,0.011037,8.0489e-06,0,0,0.064192,-0.02593,0,4.1855e-05,0,0,0,0.035727,0.0010635,0.011037,0.012875,0.015942,0.030908,1.0013e-06,0.53,0.39,0
0.021383,0.00082492,0.035604,0.0008448,0.010935,-6.8698e-05,0,0,0.06414,-0.026233,0,-0.00035723,0,0,0,0.035604,0.00084445,0.010935,-0.11372,0.015794,0.030973,9.9797e-07,0.54,0.39,0
0.022025,0.00090122,0.035495,0.00063931,0.01084,-0.00010806,0,0,0.064102,-0.026522,0,-0.00056189,0,0,0,0.035495,0.0006388,0.01084,-0.17816,0.015658,0.03104,9.9533e-07,0.55,0.39,0
0.022665,0.00097172,0.035389,0.00045339,0.010753,-0.00012376,0,0,0.064054,-0.026778,0,-0.00064358,0,0,0,0.035389,0.00045278,0.010753,-0.20353,0.015532,0.031094,9.9223e-07,0.56,0.39,0
0.023306,0.0010377,0.035283,0.0002891,0.010672,-0.00012503,0,0,0.063989,-0.026994,0,-0.00065017,0,0,0,0.035283,0.00028849,0.010672,-0.20525,0.015414,0.03113,9.8836e-07,0.57,0.39,0
0.023945,0.0011002,0.035176,0.00014647,0.010597,-0.00011795,0,0,0.063905,-0.02717,0,-0.00061335,0,0,0,0.035176,0.00014591,0.010597,-0.19342,0.015306,0.031149,9.837e-07,0.58,0.39,0
0.024584,0.0011598,0.035068,2.4391e-05,0.010528,-0.00010663,0,0,0.063804,-0.027309,0,-0.00055447,0,0,0,0.035068,2.3895e-05,0.010528,-0.17478,0.015207,0.03115,9.7834e-07,0.59,0.39,0
0.025221,0.001217,0.03496,-7.8849e-05,0.010464,-9.3857e-05,0,0,0.063689,-0.027412,0,-0.00048805,0,0,0,0.034961,-7.927e-05,0.010464,-0.15387,0.015115,0.031137,9.7241e-07,0.6,0.39,0
0.025858,0.0012721,0.034853,-0.00016525,0.010406,-8.1536e-05,0,0,0.063562,-0.027486,0,-0.00042399,0,0,0,0.034854,-0.00016561,0.010406,-0.13376,0.015031,0.031111,9.6605e-07,0.61,0.39,0
0.026492,0.0013253,0.034748,-0.00023693,0.010353,-7.0915e-05,0,0,0.063426,-0.027535,0,-0.00036876,0,0,0,0.034748,-0.00023723,0.010353,-0.11645,0.014955,0.031075,9.5942e-07,0.62,0.39,0
0.027126,0.0013768,0.034645,-0.00029597,0.010305,-6.2761e-05,0,0,0.063285,-0.027562,0,-0.00032636,0,0,0,0.034646,-0.00029624,0.010305,-0.10319,0.014885,0.03103,9.5264e-07,0.63,0.39,0
0.027758,0.0014265,0.034546,-0.00034438,0.01026,-5.7476e-05,0,0,0.063142,-0.027572,0,-0.00029887,0,0,0,0.034546,-0.00034462,0.01026,-0.094623,0.014821,0.030981,9.4584e-07,0.64,0.39,0
0.028389,0.0014746,0.03445,-0.000384,0.01022,-5.5187e-05,0,0,0.062998,-0.02757,0,-0.00028697,0,0,0,0.03445,-0.00038422,0.01022,-0.090983,0.014762,0.030927,9.3913e-07,0.65,0.39,0
0.029018,0.001521,0.034358,-0.0004165,0.010182,-5.582e-05,0,0,0.062856,-0.027557,0,-0.00029027,0,0,0,0.034358,-0.0004167,0.010182,-0.092156,0.014708,0.030872,9.3259e-07,0.66,0.39,0
0.029646,0.0015657,0.034271,-0.00044333,0.010148,-5.9154e-05,0,0,0.062719,-0.027538,0,-0.0003076,0,0,0,0.034271,-0.00044354,0.010148,-0.097796,0.014659,0.030816,9.263e-07,0.67,0.39,0
0.030273,0.0016088,0.034189,-0.00046579,0.010117,-6.4866e-05,0,0,0.062587,-0.027515,0,-0.0003373,0,0,0,0.034189,-0.00046601,0.010117,-0.10739,0.014613,0.030761,9.203e-07,0.68,0.39,0
0.030898,0.0016501,0.034112,-0.00048496,0.010088,-7.2572e-05,0,0,0.062462,-0.02749,0,-0.00037738,0,0,0,0.034112,-0.00048519,0.010088,-0.12032,0.014572,0.030708,9.1465e-07,0.69,0.39,0
0.031522,0.0016896,0.03404,-0.00050173,0.010061,-8.1855e-05,0,0,0.062344,-0.027464,0,-0.00042564,0,0,0,0.03404,-0.00050199,0.010061,-0.13589,0.014533,0.030657,9.0936e-07,0.7,0.39,0
0.032145,0.0017274,0.033973,-0.00051684,0.010037,-9.2284e-05,0,0,0.062234,-0.027439,0,-0.00047988,0,0,0,0.033973,-0.00051715,0.010037,-0.15341,0.014498,0.03061,9.0445e-07,0.71,0.39,0
0.032766,0.0017634,0.033911,-0.00053089,0.010014,-0.00010344,0,0,0.062132,-0.027417,0,-0.00053789,0,0,0,0.033911,-0.00053126,0.010014,-0.17217,0.014465,0.030566,8.9993e-07,0.72,0.39,0
0.033387,0.0017977,0.033854,-0.00054434,0.0099929,-0.00011492,0,0,0.062039,-0.027397,0,-0.0005976,0,0,0,0.033854,-0.00054477,0.0099929,-0.19151,0.014434,0.030526,8.958e-07,0.73,0.39,0
0.034007,0.0018302,0.033802,-0.00055752,0.0099733,-0.00012636,0,0,0.061954,-0.02738,0,-0.00065707,0,0,0,0.033802,-0.00055802,0.0099733,-0.21079,0.014406,0.030491,8.9204e-07,0.74,0.39,0
0.034626,0.0018609,0.033754,-0.00057067,0.009955,-0.00013742,0,0,0.061878,-0.027367,0,-0.00071457,0,0,0,0.033755,-0.00057126,0.009955,-0.22945,0.014379,0.030459,8.8865e-07,0.75,0.39,0
0.035245,0.0018898,0.033711,-0.00058397,0.009938,-0.0001478,0,0,0.061809,-0.027357,0,-0.00076855,0,0,0,0.033711,-0.00058463,0.009938,-0.24699,0.014355,0.030431,8.856e-07,0.76,0.39,0
0.035863,0.0019171,0.033671,-0.0005975,0.0099221,-0.00015725,0,0,0.061747,-0.027351,0,-0.00081771,0,0,0,0.033672,-0.00059824,0.0099221,-0.26297,0.014332,0.030407,8.8288e-07,0.77,0.39,0
0.03648,0.0019427,0.033635,-0.0006113,0.0099072,-0.00016557,0,0,0.061693,-0.027348,0,-0.00086094,0,0,0,0.033636,-0.00061212,0.0099072,-0.27704,0.01431,0.030386,8.8046e-07,0.78,0.39,0
0.037096,0.0019666,0.033603,-0.00062536,0.0098933,-0.00017257,0,0,0.061645,-0.027349,0,-0.00089734,0,0,0,0.033604,-0.00062624,0.0098933,-0.2889,0.01429,0.030369,8.7833e-07,0.79,0.39,0
0.037713,0.001989,0.033574,-0.00063964,0.0098803,-0.00017812,0,0,0.061604,-0.027352,0,-0.00092622,0,0,0,0.033575,-0.00064057,0.0098803,-0.29832,0.014272,0.030355,8.7645e-07,0.8,0.39,0
0.038328,0.0020098,0.033548,-0.00065407,0.0098682,-0.00018213,0,0,0.061568,-0.027358,0,-0.00094707,0,0,0,0.033549,-0.00065504,0.0098682,-0.30514,0.014254,0.030343,8.748e-07,0.81,0.39,0
0.038944,0.0020291,0.033525,-0.00066856,0.0098568,-0.00018453,0,0,0.061536,-0.027366,0,-0.00095956,0,0,0,0.033526,-0.00066956,0.0098568,-0.30924,0.014238,0.030334,8.7337e-07,0.82,0.39,0
0.039559,0.002047,0.033504,-0.00068302,0.0098462,-0.00018529,0,0,0.061509,-0.027376,0,-0.0009635,0,0,0,0.033505,-0.00068403,0.0098462,-0.31056,0.014222,0.030327,8.7213e-07,0.83,0.39,0
0.040174,0.0020636,0.033485,-0.00069735,0.0098363,-0.00018439,0,0,0.061487,-0.027388,0,-0.00095884,0,0,0,0.033486,-0.00069835,0.0098363,-0.3091,0.014208,0.030322,8.7106e-07,0.84,0.39,0
0.040789,0.0020788,0.033468,-0.00071143,0.0098271,-0.00018186,0,0,0.061467,-0.0274,0,-0.00094568,0,0,0,0.033469,-0.0007124,0.0098271,-0.30487,0.014195,0.030319,8.7014e-07,0.85,0.39,0
0.041403,0.0020927,0.033454,-0.00072515,0.0098186,-0.00017773,0,0,0.061451,-0.027414,0,-0.00092418,0,0,0,0.033455,-0.00072608,0.0098186,-0.29795,0.014182,0.030316,8.6935e-07,0.86,0.39,0
0.042018,0.0021054,0.033441,-0.00073841,0.0098107,-0.00017204,0,0,0.061438,-0.027428,0,-0.00089462,0,0,0,0.033442,-0.00073928,0.0098107,-0.28842,0.014171,0.030315,8.6868e-07,0.87,0.39,0
0.042632,0.0021169,0.033429,-0.0007511,0.0098034,-0.00016488,0,0,0.061427,-0.027442,0,-0.00085736,0,0,0,0.03343,-0.0007519,0.0098034,-0.2764,0.01416,0.030315,8.6811e-07,0.88,0.39,0
0.043246,0.0021274,0.033419,-0.00076313,0.0097968,-0.00015631,0,0,0.061418,-0.027456,0,-0.00081281,0,0,0,0.03342,-0.00076385,0.0097968,-0.26202,0.014151,0.030316,8.6763e-07,0.89,0.39,0
0.043861,0.0021367,0.03341,-0.00077442,0.0097907,-0.00014643,0,0,0.061411,-0.027469,0,-0.00076145,0,0,0,0.033411,-0.00077505,0.0097907,-0.24545,0.014142,0.030317,8.6723e-07,0.9,0.39,0
0.044475,0.002145,0.033402,-0.00078487,0.0097853,-0.00013534,0,0,0.061405,-0.027482,0,-0.00070379,0,0,0,0.033403,-0.00078541,0.0097853,-0.22684,0.014134,0.030318,8.669e-07,0.91,0.39,0
0.045089,0.0021524,0.033396,-0.00079441,0.0097804,-0.00012315,0,0,0.0614,-0.027495,0,-0.00064038,0,0,0,0.033396,-0.00079486,0.0097804,-0.20639,0.014127,0.03032,8.6662e-07,0.92,0.39,0
0.045703,0.0021588,0.03339,-0.00080299,0.0097761,-0.00010996,0,0,0.061396,-0.027506,0,-0.00057182,0,0,0,0.03339,-0.00080335,0.0097761,-0.18427,0.014121,0.030321,8.6639e-07,0.93,0.39,0
0.046317,0.0021642,0.033385,-0.00081054,0.0097724,-9.5902e-05,0,0,0.061394,-0.027516,0,-0.00049869,0,0,0,0.033386,-0.00081081,0.0097724,-0.1607,0.014116,0.030323,8.6621e-07,0.94,0.39,0
0.046931,0.0021688,0.033381,-0.000817,0.0097693,-8.1084e-05,0,0,0.061391,-0.027524,0,-0.00042164,0,0,0,0.033382,-0.0008172,0.0097693,-0.13586,0.014111,0.030325,8.6606e-07,0.95,0.39,0
0.047544,0.0021725,0.033378,-0.00082235,0.0097668,-6.5632e-05,0,0,0.06139,-0.027532,0,-0.00034129,0,0,0,0.033378,-0.00082248,0.0097668,-0.10996,0.014108,0.030326,8.6595e-07,0.96,0.39,0
0.048158,0.0021754,0.033376,-0.00082654,0.0097648,-4.9671e-05,0,0,0.061389,-0.027537,0,-0.00025829,0,0,0,0.033376,-0.00082662,0.0097648,-0.083214,0.014105,0.030327,8.6587e-07,0.97,0.39,0
0.048772,0.0021774,0.033374,-0.00082956,0.0097634,-3.3327e-05,0,0,0.061388,-0.027542,0,-0.0001733,0,0,0,0.033374,-0.00082959,0.0097634,-0.055831,0.014103,0.030328,8.6581e-07,0.98,0.39,0
0.049386,0.0021786,0.033373,-0.00083137,0.0097625,-1.4784e-05,0,0,0.061388,-0.027544,0,-7.6877e-05,0,0,0,0.033373,-0.00083139,0.0097625,-0.024766,0.014101,0.030329,8.6578e-07,0.99,0.39,0
0.049693,0.002179,0.033373,-0.00083198,0.0097622,-4.4926e-06,0,0,0.061387,-0.027545,0,-2.3362e-05,0,0,0,0.033373,-0.00083199,0.0097622,-0.0075263,0.014101,0.030329,8.6577e-07,1,0.39,0
0.00026579,2.779e-05,0.035754,0.015056,0.015243,0.0010687,0,0,0.053329,-0.00048567,0,0.0055573,0,0,0,0.03581,0.015001,0.015243,2.9448,0.022018,0.02069,4.5475e-07,0,0.4,0
0.00053329,5.8713e-05,0.035788,0.014813,0.01518,0.0010922,0,0,0.05358,-0.0009544,0,0.0056794,0,0,0,0.035845,0.014756,0.01518,2.9683,0.021927,0.020882,4.6714e-07,0.01,0.4,0
0.0010716,0.00012658,0.035914,0.014369,0.015085,0.0011578,0,0,0.054156,-0.0018618,0,0.0060204,0,0,0,0.035977,0.014306,0.015085,3.0612,0.021789,0.021293,4.9386e-07,0.02,0.4,0
0.0016164,0.00020627,0.036099,0.013977,0.015023,0.0012393,0,0,0.054797,-0.0027182,0,0.0064445,0,0,0,0.036169,0.013908,0.015023,3.1911,0.0217,0.021726,5.2229e-07,0.03,0.4,0
0.0021675,0.000298,0.036291,0.013603,0.014968,0.0013333,0,0,0.05544,-0.003549,0,0.0069334,0,0,0,0.03637,0.013525,0.014968,3.3458,0.021621,0.02216,5.5117e-07,0.04,0.4,0
0.0027252,0.00040337,0.036536,0.013231,0.01493,0.0014777,0,0,0.056176,-0.0044182,0,0.007684,0,0,0,0.036631,0.013136,0.01493,3.6064,0.021566,0.022653,5.8475e-07,0.05,0.4,0
0.0032911,0.00052485,0.036901,0.012773,0.014902,0.0016677,0,0,0.057196,-0.0055356,0,0.0086721,0,0,0,0.037019,0.012655,0.014902,3.9273,0.021525,0.023324,6.321e-07,0.06,0.4,0
0.0038691,0.00065988,0.037507,0.012173,0.014904,0.001824,0,0,0.054776,-0.0063456,0,0.008954,0,0,0,0.037654,0.012026,0.014904,4.1371,0.021528,0.024324,7.1953e-07,0.07,0.4,0
0.0043902,0.00077877,0.037795,0.012014,0.014942,0.0021862,0,0,0.044926,-0.005498,0,0.0084973,0,0,0,0.038019,0.01179,0.014942,4.9387,0.021584,0.024815,7.7695e-07,0.08,0.4,0
0.0047724,0.00084607,0.037652,0.012554,0.015062,0.0027365,0,0,0.0343,-0.0037825,0,0.0082086,0,0,0,0.037974,0.012232,0.015062,6.2392,0.021756,0.024457,7.4504e-07,0.09,0.4,0
0.0050748,0.00087092,0.037877,0.012729,0.015182,0.0028785,0,0,0.030159,-0.003266,0,0.0076778,0,0,0,0.038207,0.012399,0.015182,6.4539,0.021929,0.024536,7.3307e-07,0.1,0.4,0
0.0053731,0.00088031,0.038054,0.012142,0.015059,0.0026786,0,0,0.029894,-0.0037917,0,0.0069643,0,0,0,0.038331,0.011865,0.015059,5.8427,0.021752,0.025024,7.6068e-07,0.11,0.4,0
0.0056727,0.00088421,0.037862,0.011402,0.014779,0.0024842,0,0,0.030008,-0.0043903,0,0.006459,0,0,0,0.038096,0.011169,0.014779,5.3215,0.021348,0.025316,7.7627e-07,0.12,0.4,0
0.0059732,0.00088434,0.037679,0.010693,0.014512,0.0022897,0,0,0.030117,-0.0049637,0,0.0059533,0,0,0,0.037873,0.010499,0.014512,4.8214,0.020961,0.025606,7.9108e-07,0.13,0.4,0
0.006275,0.00088086,0.037532,0.0099676,0.01425,0.0021085,0,0,0.030267,-0.0055672,0,0.005482,0,0,0,0.037694,0.0098061,0.01425,4.3541,0.020583,0.025954,8.0962e-07,0.14,0.4,0
0.0065786,0.0008743,0.037418,0.0092558,0.014002,0.0019607,0,0,0.030441,-0.0061702,0,0.0050979,0,0,0,0.037554,0.0091192,0.014002,3.9676,0.020225,0.026337,8.303e-07,0.15,0.4,0
0.0068838,0.00086543,0.037313,0.0085808,0.013768,0.0018461,0,0,0.030608,-0.0067436,0,0.0047998,0,0,0,0.037432,0.0084621,0.013768,3.6641,0.019887,0.026716,8.5034e-07,0.16,0.4,0
0.0071907,0.00085485,0.037207,0.007954,0.013548,0.0017527,0,0,0.030756,-0.0072726,0,0.004557,0,0,0,0.037312,0.0078489,0.013548,3.4188,0.01957,0.027068,8.681e-07,0.17,0.4,0
0.007499,0.00084293,0.037096,0.007375,0.013341,0.0016681,0,0,0.030881,-0.0077562,0,0.0043369,0,0,0,0.03719,0.0072813,0.013341,3.2042,0.019271,0.027387,8.8317e-07,0.18,0.4,0
0.0078084,0.0008298,0.036983,0.0068366,0.013146,0.0015831,0,0,0.030988,-0.008202,0,0.004116,0,0,0,0.037066,0.0067532,0.013146,2.9996,0.018988,0.027676,8.9593e-07,0.19,0.4,0
0.0081187,0.00081545,0.036871,0.0063288,0.01296,0.0014932,0,0,0.031084,-0.0086204,0,0.0038822,0,0,0,0.036944,0.0062555,0.01296,2.794,0.01872,0.027946,9.0708e-07,0.2,0.4,0
0.00843,0.00079977,0.036763,0.0058423,0.012782,0.0013973,0,0,0.031176,-0.0090211,0,0.003633,0,0,0,0.036827,0.0057789,0.012782,2.5839,0.018462,0.028206,9.1735e-07,0.21,0.4,0
0.0087423,0.00078263,0.036664,0.0053699,0.01261,0.0012967,0,0,0.03127,-0.0094122,0,0.0033715,0,0,0,0.036718,0.0053158,0.01261,2.3705,0.018214,0.028465,9.2735e-07,0.22,0.4,0
0.0090554,0.00076391,0.036573,0.004906,0.012444,0.0011935,0,0,0.031368,-0.0097991,0,0.0031032,0,0,0,0.036619,0.0048607,0.012444,2.157,0.017974,0.028727,9.3747e-07,0.23,0.4,0
0.0093696,0.00074352,0.036493,0.0044469,0.012282,0.0010899,0,0,0.031475,-0.010186,0,0.0028339,0,0,0,0.036531,0.0044095,0.012282,1.9472,0.017741,0.028998,9.4799e-07,0.24,0.4,0
0.0096849,0.00072139,0.036424,0.00399,0.012124,0.00098806,0,0,0.03159,-0.010574,0,0.002569,0,0,0,0.036454,0.0039597,0.012124,1.7447,0.017513,0.029279,9.5906e-07,0.25,0.4,0
0.010001,0.00069749,0.036365,0.0035338,0.01197,0.00088954,0,0,0.031714,-0.010967,0,0.0023128,0,0,0,0.03639,0.0035095,0.01197,1.5522,0.01729,0.029573,9.7077e-07,0.26,0.4,0
0.010319,0.00067181,0.036318,0.003077,0.011818,0.00079563,0,0,0.031849,-0.011364,0,0.0020686,0,0,0,0.036337,0.0030578,0.011818,1.3715,0.017071,0.029879,9.8318e-07,0.27,0.4,0
0.010638,0.00064435,0.036281,0.0026193,0.01167,0.00070716,0,0,0.031995,-0.011766,0,0.0018386,0,0,0,0.036296,0.0026043,0.01167,1.204,0.016857,0.030198,9.9632e-07,0.28,0.4,0
0.010959,0.00061515,0.036256,0.0021603,0.011525,0.00062451,0,0,0.032151,-0.012174,0,0.0016237,0,0,0,0.036268,0.0021488,0.011525,1.0499,0.016647,0.030531,1.0102e-06,0.29,0.4,0
0.011281,0.0005842,0.036243,0.0017005,0.011383,0.0005476,0,0,0.032318,-0.012588,0,0.0014238,0,0,0,0.036252,0.0016917,0.011383,0.90888,0.016442,0.030878,1.0249e-06,0.3,0.4,0
0.011605,0.00055153,0.036243,0.0012405,0.011245,0.00047581,0,0,0.032498,-0.013006,0,0.0012371,0,0,0,0.03625,0.0012339,0.011245,0.77948,0.016243,0.031238,1.0405e-06,0.31,0.4,0
0.011931,0.00051714,0.036257,0.00078175,0.011112,0.00040792,0,0,0.032689,-0.013429,0,0.0010606,0,0,0,0.036262,0.00077698,0.011112,0.65948,0.01605,0.031611,1.0569e-06,0.32,0.4,0
0.012259,0.000481,0.036284,0.00032663,0.010983,0.00034197,0,0,0.032891,-0.013854,0,0.00088913,0,0,0,0.036288,0.00032329,0.010983,0.54557,0.015865,0.031996,1.0742e-06,0.33,0.4,0
0.012589,0.00044305,0.036327,-0.00012118,0.010862,0.00027529,0,0,0.033105,-0.014278,0,0.00071575,0,0,0,0.036329,-0.00012337,0.010862,0.43345,0.015689,0.032389,1.0923e-06,0.34,0.4,0
0.012921,0.00040318,0.036383,-0.00055593,0.010748,0.00020455,0,0,0.033325,-0.014695,0,0.00053183,0,0,0,0.036384,-0.00055719,0.010748,0.31801,0.015525,0.032785,1.111e-06,0.35,0.4,0
0.013256,0.00036124,0.03645,-0.0009689,0.010644,0.00012632,0,0,0.033548,-0.015097,0,0.00032843,0,0,0,0.036451,-0.00096949,0.010644,0.19416,0.015375,0.033175,1.1299e-06,0.36,0.4,0
0.013592,0.00031705,0.036525,-0.0013475,0.010553,3.8193e-05,0,0,0.033763,-0.015471,0,9.93e-05,0,0,0,0.036525,-0.0013477,0.010553,0.058497,0.015243,0.033545,1.1482e-06,0.37,0.4,0
0.013931,0.00027047,0.036599,-0.0016747,0.010477,-5.9118e-05,0,0,0.033958,-0.015798,0,-0.00015371,0,0,0,0.036599,-0.001675,0.010477,-0.08789,0.015134,0.033875,1.1649e-06,0.38,0.4,0
0.014271,0.00022146,0.036665,-0.0019307,0.01042,-0.00015904,0,0,0.034119,-0.016056,0,-0.00041349,0,0,0,0.036666,-0.0019316,0.01042,-0.23567,0.015052,0.034141,1.1788e-06,0.39,0.4,0
0.014613,0.0001702,0.036718,-0.002097,0.010386,-0.00024677,0,0,0.034231,-0.016228,0,-0.00064159,0,0,0,0.03672,-0.0020987,0.010386,-0.36406,0.015002,0.034323,1.1887e-06,0.4,0.4,0
0.014956,0.00011729,0.036758,-0.0021645,0.010378,-0.0002997,0,0,0.034294,-0.016305,0,-0.00077923,0,0,0,0.036761,-0.0021668,0.010378,-0.44112,0.014991,0.034415,1.1946e-06,0.41,0.4,0
0.015299,6.3759e-05,0.036801,-0.0021426,0.010398,-0.0002935,0,0,0.034325,-0.016302,0,-0.00076309,0,0,0,0.036803,-0.0021449,0.010398,-0.43171,0.015019,0.034435,1.198e-06,0.42,0.4,0
0.015643,1.1004e-05,0.03688,-0.0020648,0.010445,-0.00021996,0,0,0.034366,-0.016262,0,-0.00057189,0,0,0,0.036882,-0.0020663,0.010445,-0.32342,0.015087,0.034441,1.2033e-06,0.43,0.4,0
0.015987,-3.9835e-05,0.037001,-0.0019856,0.010505,-0.0001051,0,0,0.034445,-0.016237,0,-0.00027325,0,0,0,0.037002,-0.0019865,0.010505,-0.15471,0.015173,0.034484,1.2126e-06,0.44,0.4,0
0.016331,-8.816e-05,0.037131,-0.0018026,0.010599,3.8773e-05,0,0,0.034492,-0.016122,0,0.00010081,0,0,0,0.037133,-0.0018042,0.010599,0.056752,0.015309,0.034453,1.2201e-06,0.45,0.4,0
0.016676,-0.00013099,0.036991,-0.0013904,0.01068,0.00039041,0,0,0.034951,-0.015998,0,0.0011525,0,0,0,0.037002,-0.0014021,0.01068,0.61126,0.015427,0.034013,1.207e-06,0.46,0.4,0
0.017028,-0.00014957,0.036931,-0.0010507,0.010764,0.00081238,0,0,0.039556,-0.017322,0,0.0029309,0,0,0,0.036966,-0.0010855,0.010764,1.3252,0.015548,0.033744,1.2166e-06,0.47,0.4,0
0.017466,-0.00010328,0.037259,-0.00031708,0.011083,0.001021,0,0,0.051122,-0.021043,0,0.004739,0,0,0,0.037311,-0.00036921,0.011083,1.6998,0.016008,0.033497,1.2259e-06,0.48,0.4,0
0.018056,1.6193e-05,0.037174,0.0011094,0.011485,0.0011157,0,0,0.062123,-0.024396,0,0.0058036,0,0,0,0.037222,0.001061,0.011485,1.8392,0.016589,0.03226,1.1464e-06,0.49,0.4,0
0.018713,0.0001586,0.036736,0.0018882,0.011587,0.00096092,0,0,0.065388,-0.025218,0,0.0049968,0,0,0,0.036767,0.0018575,0.011587,1.5775,0.016737,0.031204,1.0652e-06,0.5,0.4,0
0.019363,0.00028445,0.036415,0.0017489,0.011449,0.00058983,0,0,0.064911,-0.025221,0,0.0030671,0,0,0,0.036428,0.0017359,0.011449,0.97599,0.016538,0.030999,1.0389e-06,0.51,0.4,0
0.020011,0.00039034,0.036177,0.0014517,0.011288,0.00030469,0,0,0.064709,-0.025576,0,0.0015844,0,0,0,0.03618,0.0014479,0.011288,0.50316,0.016306,0.031006,1.0272e-06,0.52,0.4,0
0.020658,0.00048131,0.036019,0.001162,0.011154,0.00014049,0,0,0.064648,-0.02598,0,0.00073053,0,0,0,0.03602,0.0011609,0.011154,0.23073,0.016112,0.031091,1.0231e-06,0.53,0.4,0
0.021304,0.00056193,0.035879,0.00089812,0.011033,5.3896e-05,0,0,0.064598,-0.026351,0,0.00028026,0,0,0,0.035879,0.00089772,0.011033,0.087781,0.015937,0.031175,1.0197e-06,0.54,0.4,0
0.02195,0.0006352,0.035743,0.00066424,0.010922,1.1564e-05,0,0,0.064534,-0.026671,0,6.0134e-05,0,0,0,0.035743,0.00066397,0.010922,0.018291,0.015776,0.03124,1.0156e-06,0.55,0.4,0
0.022595,0.00070309,0.03561,0.00046063,0.010821,-5.0272e-06,0,0,0.06445,-0.026937,0,-2.6141e-05,0,0,0,0.03561,0.00046038,0.010821,-0.0087962,0.01563,0.031284,1.0107e-06,0.56,0.4,0
0.023239,0.00076696,0.035478,0.00028579,0.010729,-6.6706e-06,0,0,0.064348,-0.027153,0,-3.4687e-05,0,0,0,0.035479,0.00028554,0.010729,-0.011422,0.015498,0.031306,1.005e-06,0.57,0.4,0
0.023882,0.00082772,0.035349,0.00013748,0.010646,-1.0625e-07,0,0,0.064229,-0.027322,0,-5.5259e-07,0,0,0,0.03535,0.00013724,0.010646,-0.00067815,0.015378,0.03131,9.9862e-07,0.58,0.4,0
0.024523,0.000886,0.035223,1.3087e-05,0.010571,1.0238e-05,0,0,0.064095,-0.02745,0,5.3239e-05,0,0,0,0.035223,1.2858e-05,0.010571,0.016217,0.015269,0.031297,9.9166e-07,0.59,0.4,0
0.025163,0.00094222,0.035099,-9.015e-05,0.010503,2.1394e-05,0,0,0.06395,-0.027541,0,0.00011125,0,0,0,0.035099,-9.0379e-05,0.010503,0.03445,0.01517,0.031269,9.843e-07,0.6,0.4,0
0.025802,0.00099665,0.034978,-0.00017501,0.010441,3.1389e-05,0,0,0.063796,-0.027601,0,0.00016322,0,0,0,0.034978,-0.00017524,0.010441,0.050831,0.015081,0.031229,9.7667e-07,0.61,0.4,0
0.026439,0.0010494,0.03486,-0.00024419,0.010385,3.8973e-05,0,0,0.063636,-0.027635,0,0.00020266,0,0,0,0.03486,-0.00024442,0.010385,0.063327,0.015,0.03118,9.6892e-07,0.62,0.4,0
0.027075,0.0011007,0.034747,-0.00030021,0.010334,4.343e-05,0,0,0.063474,-0.027649,0,0.00022584,0,0,0,0.034747,-0.00030044,0.010334,0.070757,0.014927,0.031124,9.6117e-07,0.63,0.4,0
0.027709,0.0011504,0.034639,-0.0003454,0.010288,4.4441e-05,0,0,0.063312,-0.027647,0,0.00023109,0,0,0,0.034639,-0.00034562,0.010288,0.072575,0.014861,0.031064,9.5353e-07,0.64,0.4,0
0.028341,0.0011985,0.034536,-0.00038185,0.010246,4.1983e-05,0,0,0.063153,-0.027633,0,0.00021831,0,0,0,0.034536,-0.00038204,0.010246,0.068708,0.0148,0.031002,9.4611e-07,0.65,0.4,0
0.028972,0.0012451,0.034438,-0.00041139,0.010208,3.6241e-05,0,0,0.062999,-0.027611,0,0.00018845,0,0,0,0.034439,-0.00041155,0.010208,0.059426,0.014745,0.030939,9.3897e-07,0.66,0.4,0
0.029601,0.0012901,0.034347,-0.00043561,0.010173,2.7549e-05,0,0,0.062851,-0.027583,0,0.00014325,0,0,0,0.034347,-0.00043574,0.010173,0.045242,0.014695,0.030877,9.3219e-07,0.67,0.4,0
0.030229,0.0013334,0.034261,-0.00045586,0.010141,1.6333e-05,0,0,0.06271,-0.027553,0,8.4931e-05,0,0,0,0.034261,-0.00045597,0.010141,0.026834,0.014649,0.030817,9.2581e-07,0.68,0.4,0
0.030855,0.001375,0.034181,-0.00047327,0.010112,3.0737e-06,0,0,0.062578,-0.027522,0,1.5983e-05,0,0,0,0.034181,-0.00047336,0.010112,0.0049732,0.014607,0.030759,9.1985e-07,0.69,0.4,0
0.031481,0.0014148,0.034107,-0.00048875,0.010085,-1.1727e-05,0,0,0.062456,-0.027493,0,-6.098e-05,0,0,0,0.034107,-0.00048883,0.010085,-0.019519,0.014568,0.030706,9.1435e-07,0.7,0.4,0
0.032104,0.0014529,0.034039,-0.00050304,0.010061,-2.757e-05,0,0,0.062343,-0.027466,0,-0.00014336,0,0,0,0.034039,-0.00050313,0.010061,-0.045819,0.014532,0.030657,9.0929e-07,0.71,0.4,0
0.032727,0.0014891,0.033976,-0.0005167,0.010038,-4.3975e-05,0,0,0.062239,-0.027442,0,-0.00022867,0,0,0,0.033976,-0.00051681,0.010038,-0.073127,0.014499,0.030612,9.0468e-07,0.72,0.4,0
0.033349,0.0015236,0.033919,-0.00053016,0.010017,-6.0497e-05,0,0,0.062146,-0.027422,0,-0.00031458,0,0,0,0.033919,-0.00053031,0.010017,-0.10069,0.014468,0.030572,9.005e-07,0.73,0.4,0
0.03397,0.0015562,0.033867,-0.00054372,0.0099969,-7.6729e-05,0,0,0.062061,-0.027406,0,-0.00039899,0,0,0,0.033867,-0.00054393,0.0099969,-0.12782,0.01444,0.030537,8.9675e-07,0.74,0.4,0
0.03459,0.001587,0.033819,-0.00055758,0.0099785,-9.2313e-05,0,0,0.061986,-0.027394,0,-0.00048003,0,0,0,0.03382,-0.00055786,0.0099785,-0.15392,0.014413,0.030506,8.934e-07,0.75,0.4,0
0.03521,0.0016161,0.033777,-0.00057186,0.0099614,-0.00010694,0,0,0.061919,-0.027386,0,-0.00055608,0,0,0,0.033777,-0.00057222,0.0099614,-0.17843,0.014389,0.030479,8.9042e-07,0.76,0.4,0
0.035829,0.0016434,0.033738,-0.0005866,0.0099454,-0.00012034,0,0,0.061861,-0.027383,0,-0.00062579,0,0,0,0.033738,-0.00058704,0.0099454,-0.20093,0.014366,0.030457,8.8779e-07,0.77,0.4,0
0.036447,0.001669,0.033703,-0.0006018,0.0099304,-0.00013232,0,0,0.061809,-0.027384,0,-0.00068805,0,0,0,0.033704,-0.00060233,0.0099304,-0.22104,0.014344,0.030439,8.8548e-07,0.78,0.4,0
0.037065,0.0016929,0.033672,-0.00061741,0.0099164,-0.00014269,0,0,0.061765,-0.027388,0,-0.00074199,0,0,0,0.033673,-0.00061801,0.0099164,-0.23847,0.014324,0.030424,8.8347e-07,0.79,0.4,0
0.037682,0.0017152,0.033644,-0.00063334,0.0099032,-0.00015134,0,0,0.061726,-0.027395,0,-0.00078696,0,0,0,0.033645,-0.00063402,0.0099032,-0.253,0.014305,0.030412,8.8172e-07,0.8,0.4,0
0.0383,0.001736,0.033619,-0.00064949,0.0098909,-0.00015818,0,0,0.061694,-0.027405,0,-0.00082252,0,0,0,0.03362,-0.00065023,0.0098909,-0.26449,0.014287,0.030403,8.8021e-07,0.81,0.4,0
0.038916,0.0017552,0.033597,-0.00066576,0.0098794,-0.00016315,0,0,0.061666,-0.027417,0,-0.00084839,0,0,0,0.033598,-0.00066654,0.0098794,-0.27286,0.01427,0.030396,8.7891e-07,0.82,0.4,0
0.039533,0.001773,0.033577,-0.000682,0.0098686,-0.00016625,0,0,0.061643,-0.027432,0,-0.00086449,0,0,0,0.033578,-0.00068281,0.0098686,-0.27806,0.014255,0.030392,8.778e-07,0.83,0.4,0
0.040149,0.0017894,0.03356,-0.00069808,0.0098585,-0.00016747,0,0,0.061623,-0.027447,0,-0.00087086,0,0,0,0.033561,-0.00069891,0.0098585,-0.28012,0.01424,0.030389,8.7687e-07,0.84,0.4,0
0.040765,0.0018044,0.033544,-0.00071389,0.0098491,-0.00016686,0,0,0.061608,-0.027464,0,-0.00086766,0,0,0,0.033545,-0.0007147,0.0098491,-0.27908,0.014227,0.030388,8.7607e-07,0.85,0.4,0
0.041381,0.0018182,0.033531,-0.00072928,0.0098404,-0.00016446,0,0,0.061595,-0.027481,0,-0.00085517,0,0,0,0.033531,-0.00073007,0.0098404,-0.27505,0.014214,0.030388,8.7541e-07,0.86,0.4,0
0.041997,0.0018308,0.033519,-0.00074414,0.0098323,-0.00016034,0,0,0.061584,-0.027499,0,-0.00083376,0,0,0,0.033519,-0.00074489,0.0098323,-0.26814,0.014202,0.030389,8.7485e-07,0.87,0.4,0
0.042613,0.0018421,0.033508,-0.00075835,0.0098249,-0.00015459,0,0,0.061576,-0.027516,0,-0.00080385,0,0,0,0.033509,-0.00075905,0.0098249,-0.2585,0.014191,0.030391,8.7439e-07,0.88,0.4,0
0.043229,0.0018524,0.033499,-0.00077181,0.0098181,-0.0001473,0,0,0.06157,-0.027534,0,-0.00076596,0,0,0,0.033499,-0.00077244,0.0098181,-0.24628,0.014182,0.030393,8.7402e-07,0.89,0.4,0
0.043844,0.0018616,0.033491,-0.00078441,0.0098118,-0.00013859,0,0,0.061565,-0.02755,0,-0.00072064,0,0,0,0.033491,-0.00078497,0.0098118,-0.23168,0.014173,0.030396,8.7371e-07,0.9,0.4,0
0.04446,0.0018698,0.033484,-0.00079607,0.0098062,-0.00012855,0,0,0.061561,-0.027566,0,-0.00066848,0,0,0,0.033484,-0.00079655,0.0098062,-0.21488,0.014165,0.030399,8.7346e-07,0.91,0.4,0
0.045076,0.001877,0.033477,-0.00080671,0.0098012,-0.00011733,0,0,0.061558,-0.027581,0,-0.0006101,0,0,0,0.033478,-0.00080711,0.0098012,-0.19609,0.014157,0.030402,8.7326e-07,0.92,0.4,0
0.045691,0.0018833,0.033472,-0.00081625,0.0097968,-0.00010503,0,0,0.061556,-0.027594,0,-0.00054615,0,0,0,0.033473,-0.00081658,0.0097968,-0.17551,0.014151,0.030405,8.731e-07,0.93,0.4,0
0.046307,0.0018886,0.033468,-0.00082465,0.009793,-9.1789e-05,0,0,0.061555,-0.027606,0,-0.0004773,0,0,0,0.033468,-0.0008249,0.009793,-0.15337,0.014145,0.030408,8.7297e-07,0.94,0.4,0
0.046922,0.0018931,0.033464,-0.00083183,0.0097898,-7.7737e-05,0,0,0.061554,-0.027616,0,-0.00040423,0,0,0,0.033465,-0.00083201,0.0097898,-0.12988,0.014141,0.03041,8.7287e-07,0.95,0.4,0
0.047538,0.0018967,0.033462,-0.00083777,0.0097871,-6.3007e-05,0,0,0.061554,-0.027625,0,-0.00032763,0,0,0,0.033462,-0.00083789,0.0097871,-0.10526,0.014137,0.030412,8.728e-07,0.96,0.4,0
0.048153,0.0018995,0.033459,-0.00084243,0.0097851,-4.7732e-05,0,0,0.061553,-0.027632,0,-0.00024821,0,0,0,0.033459,-0.0008425,0.0097851,-0.079734,0.014134,0.030414,8.7274e-07,0.97,0.4,0
0.048769,0.0019015,0.033458,-0.00084577,0.0097836,-3.2049e-05,0,0,0.061553,-0.027636,0,-0.00016665,0,0,0,0.033458,-0.00084581,0.0097836,-0.053533,0.014132,0.030415,8.7271e-07,0.98,0.4,0
0.049384,0.0019027,0.033457,-0.00084779,0.0097828,-1.4193e-05,0,0,0.061553,-0.027639,0,-7.3804e-05,0,0,0,0.033457,-0.0008478,0.0097828,-0.023707,0.014131,0.030416,8.7269e-07,0.99,0.4,0
0.049692,0.0019031,0.033457,-0.00084846,0.0097825,-4.2642e-06,0,0,0.061553,-0.02764,0,-2.2174e-05,0,0,0,0.033457,-0.00084846,0.0097825,-0.0071226,0.01413,0.030416,8.7268e-07,1,0.4,0
0.00026257,2.3265e-05,0.035324,0.014909,0.01507,0.00089488,0,0,0.052662,-0.00041928,0,0.0046534,0,0,0,0.035364,0.014869,0.01507,2.5022,0.021768,0.020396,4.3572e-07,0,0.41,0
0.00052662,4.9765e-05,0.035354,0.014693,0.015014,0.00091928,0,0,0.052883,-0.00083441,0,0.0047803,0,0,0,0.035395,0.014652,0.015014,2.5384,0.021687,0.020565,4.464e-07,0.01,0.41,0
0.0010577,0.00010896,0.035463,0.014287,0.014925,0.00098634,0,0,0.053399,-0.0016583,0,0.005129,0,0,0,0.03551,0.014241,0.014925,2.6554,0.021559,0.020936,4.6985e-07,0.02,0.41,0
0.0015946,0.00018024,0.03563,0.013908,0.014861,0.001065,0,0,0.053998,-0.0024785,0,0.005538,0,0,0,0.035683,0.013856,0.014861,2.7949,0.021467,0.021343,4.9586e-07,0.03,0.41,0
0.0021376,0.00026344,0.035825,0.013524,0.014805,0.0011398,0,0,0.054652,-0.0033297,0,0.0059267,0,0,0,0.035883,0.013465,0.014805,2.912,0.021384,0.02178,5.2427e-07,0.04,0.41,0
0.0026876,0.00035921,0.036096,0.01311,0.014762,0.0012195,0,0,0.055468,-0.0042946,0,0.0063415,0,0,0,0.036161,0.013044,0.014762,3.0197,0.021322,0.02231,5.5954e-07,0.05,0.41,0
0.003247,0.00046804,0.036472,0.012622,0.014728,0.0013065,0,0,0.056534,-0.0054758,0,0.0067937,0,0,0,0.036547,0.012548,0.014728,3.1097,0.021274,0.022988,6.065e-07,0.06,0.41,0
0.0038183,0.00059217,0.037482,0.012049,0.014859,0.0012761,0,0,0.055289,-0.0066072,0,0.0063515,0,0,0,0.037556,0.011975,0.014859,2.8775,0.021463,0.024274,7.3251e-07,0.07,0.41,0
0.0043601,0.00071709,0.038305,0.011782,0.015026,0.0015272,0,0,0.048338,-0.006459,0,0.0060557,0,0,0,0.038431,0.011656,0.015026,3.3572,0.021705,0.025267,8.5739e-07,0.08,0.41,0
0.0047989,0.00080357,0.03772,0.012158,0.014963,0.0024374,0,0,0.038752,-0.0047612,0,0.0078293,0,0,0,0.038007,0.011871,0.014963,5.5398,0.021614,0.024741,8.14e-07,0.09,0.41,0
0.0051391,0.0008372,0.037382,0.012543,0.014978,0.0030813,0,0,0.032397,-0.0034925,0,0.0089298,0,0,0,0.037776,0.012149,0.014978,7.0399,0.021634,0.024338,7.4366e-07,0.1,0.41,0
0.0054427,0.00084282,0.037794,0.012321,0.015034,0.002985,0,0,0.03017,-0.0035628,0,0.0079967,0,0,0,0.038147,0.011967,0.015034,6.6408,0.021716,0.024791,7.5125e-07,0.11,0.41,0
0.0057408,0.00084125,0.037784,0.01168,0.014839,0.0026899,0,0,0.029828,-0.004107,0,0.0069938,0,0,0,0.038062,0.011402,0.014839,5.8323,0.021435,0.025119,7.6289e-07,0.12,0.41,0
0.0060392,0.00083578,0.037563,0.01092,0.014545,0.0024268,0,0,0.029923,-0.0047126,0,0.0063098,0,0,0,0.037784,0.010698,0.014545,5.1711,0.021009,0.025384,7.7519e-07,0.13,0.41,0
0.0063393,0.00082608,0.037435,0.010137,0.014272,0.0022107,0,0,0.030112,-0.0053751,0,0.0057477,0,0,0,0.037614,0.0099578,0.014272,4.6065,0.020614,0.025773,7.966e-07,0.14,0.41,0
0.0066415,0.0008133,0.037335,0.0093765,0.014013,0.0020576,0,0,0.030318,-0.006028,0,0.0053497,0,0,0,0.037486,0.0092252,0.014013,4.191,0.020242,0.026198,8.2025e-07,0.15,0.41,0
0.0069457,0.00079855,0.037235,0.008672,0.013772,0.0019501,0,0,0.030502,-0.0066301,0,0.0050703,0,0,0,0.037368,0.0085389,0.013772,3.8908,0.019893,0.026602,8.4193e-07,0.16,0.41,0
0.0072515,0.00078263,0.037126,0.008034,0.013548,0.001866,0,0,0.030651,-0.0071682,0,0.0048516,0,0,0,0.037246,0.0079143,0.013548,3.6574,0.019569,0.02696,8.6e-07,0.17,0.41,0
0.0075587,0.00076588,0.03701,0.0074571,0.01334,0.0017865,0,0,0.03077,-0.0076478,0,0.0046449,0,0,0,0.037118,0.007349,0.01334,3.449,0.019269,0.027272,8.7451e-07,0.18,0.41,0
0.0078669,0.00074833,0.036891,0.0069266,0.013145,0.0017007,0,0,0.030869,-0.0080843,0,0.0044219,0,0,0,0.036988,0.0068298,0.013145,3.2402,0.018988,0.027549,8.8641e-07,0.19,0.41,0
0.0081761,0.00072983,0.036776,0.0064274,0.012961,0.0016049,0,0,0.03096,-0.0084939,0,0.0041728,0,0,0,0.036862,0.0063423,0.012961,3.0207,0.018722,0.027807,8.9684e-07,0.2,0.41,0
0.0084861,0.00071016,0.03667,0.0059477,0.012785,0.0014999,0,0,0.03105,-0.008889,0,0.0038998,0,0,0,0.036744,0.0058742,0.012785,2.7904,0.018468,0.02806,9.0676e-07,0.21,0.41,0
0.0087971,0.00068912,0.036576,0.0054792,0.012616,0.0013886,0,0,0.031147,-0.0092784,0,0.0036103,0,0,0,0.036638,0.0054169,0.012616,2.5536,0.018224,0.028317,9.168e-07,0.22,0.41,0
0.0091091,0.00066653,0.036493,0.0050165,0.012453,0.001274,0,0,0.031252,-0.0096673,0,0.0033125,0,0,0,0.036545,0.0049646,0.012453,2.3159,0.017987,0.028582,9.2733e-07,0.23,0.41,0
0.0094221,0.00064225,0.036422,0.0045562,0.012294,0.0011592,0,0,0.031367,-0.010059,0,0.0030138,0,0,0,0.036465,0.0045138,0.012294,2.0823,0.017757,0.028859,9.3852e-07,0.24,0.41,0
0.0097364,0.0006162,0.036364,0.0040964,0.012138,0.0010462,0,0,0.031493,-0.010454,0,0.0027201,0,0,0,0.036398,0.0040622,0.012138,1.8567,0.017533,0.02915,9.5047e-07,0.25,0.41,0
0.010052,0.00058833,0.036317,0.0036358,0.011986,0.00093679,0,0,0.03163,-0.010855,0,0.0024357,0,0,0,0.036344,0.0036087,0.011986,1.6421,0.017313,0.029454,9.632e-07,0.26,0.41,0
0.010369,0.00055864,0.036281,0.0031738,0.011836,0.00083202,0,0,0.031778,-0.011261,0,0.0021632,0,0,0,0.036302,0.0031527,0.011836,1.4401,0.017097,0.029773,9.767e-07,0.27,0.41,0
0.010688,0.00052711,0.036256,0.0027103,0.01169,0.00073253,0,0,0.031936,-0.011673,0,0.0019046,0,0,0,0.036272,0.0026942,0.01169,1.2516,0.016885,0.030106,9.9098e-07,0.28,0.41,0
0.011008,0.00049377,0.036242,0.0022456,0.011546,0.00063852,0,0,0.032104,-0.012091,0,0.0016601,0,0,0,0.036254,0.0022334,0.011546,1.0768,0.016678,0.030452,1.006e-06,0.29,0.41,0
0.01133,0.00045864,0.03624,0.0017803,0.011406,0.00054972,0,0,0.032284,-0.012513,0,0.0014293,0,0,0,0.036248,0.0017714,0.011406,0.91476,0.016475,0.030811,1.0218e-06,0.3,0.41,0
0.011653,0.00042175,0.036249,0.0013157,0.011269,0.00046543,0,0,0.032473,-0.01294,0,0.0012101,0,0,0,0.036255,0.0013094,0.011269,0.76415,0.016278,0.031183,1.0384e-06,0.31,0.41,0
0.011979,0.0003831,0.03627,0.00085385,0.011137,0.00038445,0,0,0.032673,-0.013368,0,0.00099956,0,0,0,0.036275,0.00084956,0.011137,0.62274,0.016087,0.031565,1.0557e-06,0.32,0.41,0
0.012307,0.00034269,0.036304,0.00039765,0.01101,0.00030509,0,0,0.032881,-0.013797,0,0.00079323,0,0,0,0.036307,0.00039494,0.01101,0.48762,0.015904,0.031955,1.0736e-06,0.33,0.41,0
0.012637,0.00030049,0.036349,-4.8601e-05,0.01089,0.00022528,0,0,0.033097,-0.01422,0,0.00058574,0,0,0,0.036351,-5.0127e-05,0.01089,0.35541,0.01573,0.032349,1.0919e-06,0.34,0.41,0
0.012969,0.00025647,0.036404,-0.0004788,0.010778,0.00014285,0,0,0.033314,-0.014633,0,0.00037141,0,0,0,0.036405,-0.0004795,0.010778,0.22267,0.015568,0.032741,1.1105e-06,0.35,0.41,0
0.013303,0.00021055,0.036466,-0.00088454,0.010674,5.6075e-05,0,0,0.033529,-0.015027,0,0.00014579,0,0,0,0.036466,-0.00088479,0.010674,0.086729,0.015419,0.033121,1.1287e-06,0.36,0.41,0
0.013639,0.0001627,0.036531,-0.0012549,0.010583,-3.5294e-05,0,0,0.033733,-0.015389,0,-9.1764e-05,0,0,0,0.036532,-0.0012551,0.010583,-0.05289,0.015287,0.033476,1.1461e-06,0.37,0.41,0
0.013978,0.00011292,0.036595,-0.0015767,0.010505,-0.00012864,0,0,0.033916,-0.015707,0,-0.00033447,0,0,0,0.036595,-0.0015773,0.010505,-0.1926,0.015174,0.033792,1.1616e-06,0.38,0.41,0
0.014318,6.134e-05,0.03665,-0.0018365,0.010444,-0.00021708,0,0,0.034068,-0.015965,0,-0.00056441,0,0,0,0.036652,-0.0018378,0.010444,-0.32284,0.015086,0.034052,1.1747e-06,0.39,0.41,0
0.014659,8.2894e-06,0.036697,-0.0020237,0.010402,-0.00028889,0,0,0.034183,-0.016153,0,-0.0007511,0,0,0,0.036699,-0.0020259,0.010402,-0.42731,0.015025,0.034246,1.1846e-06,0.4,0.41,0
0.015001,-4.5619e-05,0.036735,-0.0021356,0.01038,-0.00032918,0,0,0.034262,-0.01627,0,-0.00085586,0,0,0,0.036738,-0.0021384,0.01038,-0.48516,0.014993,0.034372,1.1916e-06,0.41,0.41,0
0.015344,-9.9485e-05,0.036773,-0.0021815,0.010377,-0.00032548,0,0,0.034314,-0.016327,0,-0.00084625,0,0,0,0.036776,-0.0021842,0.010377,-0.47873,0.01499,0.034442,1.1965e-06,0.42,0.41,0
0.015688,-0.00015223,0.036806,-0.0021834,0.010387,-0.00027539,0,0,0.034345,-0.016341,0,-0.00071602,0,0,0,0.036808,-0.0021855,0.010387,-0.4047,0.015003,0.034472,1.1997e-06,0.43,0.41,0
0.016031,-0.00020274,0.036802,-0.0021476,0.010396,-0.00018301,0,0,0.034327,-0.016307,0,-0.00047582,0,0,0,0.036803,-0.0021486,0.010396,-0.26903,0.015017,0.034438,1.1981e-06,0.44,0.41,0
0.016374,-0.00024943,0.036713,-0.0020274,0.010406,-2.2123e-05,0,0,0.0342,-0.016163,0,-5.7519e-05,0,0,0,0.036714,-0.0020283,0.010406,-0.03133,0.01503,0.034262,1.1864e-06,0.45,0.41,0
0.016715,-0.00028904,0.036564,-0.0018429,0.010416,0.00029437,0,0,0.033992,-0.015937,0,0.00076537,0,0,0,0.036569,-0.0018483,0.010416,0.44087,0.015046,0.033988,1.168e-06,0.46,0.41,0
0.017054,-0.0003163,0.036163,-0.0014773,0.010406,0.00085805,0,0,0.037235,-0.016663,0,0.0030043,0,0,0,0.036201,-0.0015148,0.010406,1.3894,0.015031,0.033409,1.1272e-06,0.47,0.41,0
0.017458,-0.00030514,0.036141,-0.0003457,0.010739,0.001265,0,0,0.047489,-0.019519,0,0.0055299,0,0,0,0.036212,-0.00041663,0.010739,2.1548,0.015511,0.032557,1.1133e-06,0.48,0.41,0
0.018003,-0.00022133,0.03677,0.0013244,0.011428,0.0012207,0,0,0.058697,-0.022699,0,0.0061369,0,0,0,0.03683,0.0012647,0.011428,2.0921,0.016508,0.03175,1.129e-06,0.49,0.41,0
0.018638,-8.9146e-05,0.03682,0.0022079,0.011708,0.001043,0,0,0.063864,-0.024108,0,0.0054618,0,0,0,0.036856,0.0021718,0.011708,1.7558,0.016912,0.031036,1.0799e-06,0.5,0.41,0
0.019285,3.4805e-05,0.036505,0.0020541,0.011568,0.00076248,0,0,0.064838,-0.024736,0,0.0039649,0,0,0,0.036525,0.0020344,0.011568,1.2715,0.016709,0.03085,1.0367e-06,0.51,0.41,0
0.019934,0.00013531,0.036413,0.0016317,0.011413,0.00045491,0,0,0.064999,-0.025432,0,0.0023655,0,0,0,0.03642,0.0016248,0.011413,0.7503,0.016486,0.031079,1.0419e-06,0.52,0.41,0
0.020585,0.00022139,0.036278,0.0012676,0.011264,0.0002925,0,0,0.065037,-0.02599,0,0.001521,0,0,0,0.036281,0.0012646,0.011264,0.47859,0.01627,0.031241,1.0422e-06,0.53,0.41,0
0.021235,0.00029791,0.036119,0.00095592,0.011122,0.00020457,0,0,0.064991,-0.026433,0,0.0010638,0,0,0,0.036121,0.00095428,0.011122,0.33288,0.016066,0.031345,1.0387e-06,0.54,0.41,0
0.021885,0.00036781,0.035957,0.00069198,0.010995,0.00015901,0,0,0.064902,-0.026787,0,0.00082684,0,0,0,0.035958,0.00069089,0.010995,0.25779,0.015881,0.031409,1.0333e-06,0.55,0.41,0
0.022533,0.00043297,0.035798,0.00046985,0.01088,0.00013883,0,0,0.064786,-0.027067,0,0.00072192,0,0,0,0.035799,0.00046896,0.01088,0.2246,0.015716,0.031445,1.0267e-06,0.56,0.41,0
0.02318,0.00049468,0.035644,0.00028423,0.010778,0.00013372,0,0,0.06465,-0.027285,0,0.00069534,0,0,0,0.035645,0.0002834,0.010778,0.21616,0.015569,0.031456,1.0193e-06,0.57,0.41,0
0.023826,0.00055378,0.035495,0.00013042,0.010688,0.00013687,0,0,0.064499,-0.027449,0,0.00071171,0,0,0,0.035496,0.00012959,0.010688,0.22129,0.015438,0.031446,1.0113e-06,0.58,0.41,0
0.02447,0.00061084,0.035351,4.1713e-06,0.010607,0.00014364,0,0,0.064336,-0.027566,0,0.00074692,0,0,0,0.035352,3.306e-06,0.010607,0.23243,0.015321,0.031419,1.0029e-06,0.59,0.41,0
0.025113,0.00066622,0.035212,-9.8473e-05,0.010534,0.00015087,0,0,0.064163,-0.027645,0,0.00078453,0,0,0,0.035213,-9.9379e-05,0.010534,0.24447,0.015216,0.031378,9.9422e-07,0.6,0.41,0
0.025754,0.00072012,0.035079,-0.00018115,0.010469,0.00015648,0,0,0.063984,-0.027691,0,0.00081369,0,0,0,0.03508,-0.00018209,0.010469,0.25399,0.015122,0.031325,9.8541e-07,0.61,0.41,0
0.026392,0.00077264,0.034951,-0.00024721,0.010411,0.00015918,0,0,0.063803,-0.027711,0,0.00082771,0,0,0,0.034952,-0.00024815,0.010411,0.25887,0.015038,0.031264,9.7663e-07,0.62,0.41,0
0.02703,0.0008238,0.034829,-0.00029966,0.010359,0.00015827,0,0,0.063622,-0.027712,0,0.00082299,0,0,0,0.03483,-0.00030057,0.010359,0.25794,0.014963,0.031198,9.6798e-07,0.63,0.41,0
0.027665,0.00087359,0.034713,-0.00034118,0.010312,0.0001535,0,0,0.063444,-0.027697,0,0.00079823,0,0,0,0.034714,-0.00034203,0.010312,0.25073,0.014894,0.031128,9.5958e-07,0.64,0.41,0
0.028299,0.00092195,0.034604,-0.0003741,0.010269,0.00014495,0,0,0.063271,-0.027672,0,0.00075376,0,0,0,0.034605,-0.00037486,0.010269,0.2373,0.014833,0.031057,9.5153e-07,0.65,0.41,0
0.02893,0.0009688,0.034502,-0.00040045,0.01023,0.0001329,0,0,0.063105,-0.02764,0,0.0006911,0,0,0,0.034502,-0.0004011,0.01023,0.21805,0.014777,0.030987,9.4388e-07,0.66,0.41,0
0.029561,0.0010141,0.034406,-0.00042193,0.010195,0.00011779,0,0,0.062949,-0.027605,0,0.00061252,0,0,0,0.034407,-0.00042245,0.010195,0.19367,0.014727,0.030919,9.367e-07,0.67,0.41,0
0.030189,0.0010577,0.034318,-0.00043994,0.010163,0.00010014,0,0,0.062802,-0.027569,0,0.00052075,0,0,0,0.034318,-0.00044034,0.010163,0.16498,0.01468,0.030855,9.3001e-07,0.68,0.41,0
0.030817,0.0010996,0.034236,-0.00045566,0.010134,8.0524e-05,0,0,0.062665,-0.027534,0,0.00041873,0,0,0,0.034237,-0.00045594,0.010134,0.13291,0.014638,0.030795,9.2384e-07,0.69,0.41,0
0.031443,0.0011398,0.034161,-0.00046998,0.010107,5.9512e-05,0,0,0.06254,-0.027501,0,0.00030946,0,0,0,0.034161,-0.00047017,0.010107,0.098385,0.0146,0.030739,9.1819e-07,0.7,0.41,0
0.032067,0.0011781,0.034093,-0.00048364,0.010083,3.767e-05,0,0,0.062426,-0.027472,0,0.00019588,0,0,0,0.034093,-0.00048375,0.010083,0.062355,0.014564,0.030689,9.1306e-07,0.71,0.41,0
0.032691,0.0012146,0.03403,-0.00049715,0.01006,1.5526e-05,0,0,0.062323,-0.027448,0,8.0734e-05,0,0,0,0.03403,-0.00049721,0.01006,0.025702,0.014531,0.030644,9.0844e-07,0.72,0.41,0
0.033314,0.0012493,0.033973,-0.00051089,0.010039,-6.4367e-06,0,0,0.06223,-0.027429,0,-3.3471e-05,0,0,0,0.033973,-0.00051094,0.010039,-0.010751,0.0145,0.030605,9.043e-07,0.73,0.41,0
0.033936,0.001282,0.033922,-0.00052513,0.010019,-2.7787e-05,0,0,0.062148,-0.027415,0,-0.00014449,0,0,0,0.033922,-0.00052519,0.010019,-0.046269,0.014472,0.030571,9.0062e-07,0.74,0.41,0
0.034557,0.001313,0.033876,-0.00054001,0.010001,-4.8149e-05,0,0,0.062075,-0.027406,0,-0.00025038,0,0,0,0.033876,-0.00054011,0.010001,-0.080207,0.014446,0.030542,8.9737e-07,0.75,0.41,0
0.035177,0.0013421,0.033835,-0.00055559,0.0099837,-6.7208e-05,0,0,0.062012,-0.027402,0,-0.00034948,0,0,0,0.033835,-0.00055574,0.0099837,-0.11202,0.014421,0.030518,8.9453e-07,0.76,0.41,0
0.035797,0.0013694,0.033797,-0.00057186,0.0099677,-8.4703e-05,0,0,0.061957,-0.027403,0,-0.00044045,0,0,0,0.033798,-0.00057209,0.0099677,-0.14124,0.014398,0.030498,8.9205e-07,0.77,0.41,0
0.036416,0.001395,0.033764,-0.00058877,0.0099526,-0.00010043,0,0,0.06191,-0.027408,0,-0.00052222,0,0,0,0.033765,-0.00058908,0.0099526,-0.16753,0.014376,0.030482,8.899e-07,0.78,0.41,0
0.037035,0.0014189,0.033735,-0.00060623,0.0099386,-0.00011422,0,0,0.06187,-0.027416,0,-0.00059396,0,0,0,0.033735,-0.00060662,0.0099386,-0.19061,0.014356,0.03047,8.8806e-07,0.79,0.41,0
0.037654,0.0014411,0.033708,-0.0006241,0.0099253,-0.00012598,0,0,0.061836,-0.027428,0,-0.00065511,0,0,0,0.033709,-0.00062457,0.0099253,-0.21027,0.014337,0.030461,8.8648e-07,0.8,0.41,0
0.038272,0.0014617,0.033685,-0.00064225,0.0099129,-0.00013564,0,0,0.061808,-0.027443,0,-0.00070532,0,0,0,0.033686,-0.0006428,0.0099129,-0.22642,0.014319,0.030455,8.8515e-07,0.81,0.41,0
0.03889,0.0014808,0.033665,-0.00066054,0.0099012,-0.00014316,0,0,0.061785,-0.027461,0,-0.00074442,0,0,0,0.033665,-0.00066114,0.0099012,-0.23898,0.014302,0.030451,8.8403e-07,0.82,0.41,0
0.039508,0.0014984,0.033646,-0.00067879,0.0098903,-0.00014854,0,0,0.061766,-0.02748,0,-0.00077243,0,0,0,0.033647,-0.00067943,0.0098903,-0.24797,0.014286,0.03045,8.8309e-07,0.83,0.41,0
0.040125,0.0015146,0.03363,-0.00069685,0.0098801,-0.00015183,0,0,0.061751,-0.0275,0,-0.00078949,0,0,0,0.033631,-0.00069753,0.0098801,-0.25343,0.014271,0.03045,8.8232e-07,0.84,0.41,0
0.040743,0.0015295,0.033616,-0.00071458,0.0098705,-0.00015305,0,0,0.061739,-0.027521,0,-0.00079588,0,0,0,0.033617,-0.00071526,0.0098705,-0.25545,0.014257,0.030452,8.8168e-07,0.85,0.41,0
0.04136,0.0015431,0.033604,-0.00073182,0.0098616,-0.00015231,0,0,0.06173,-0.027543,0,-0.00079199,0,0,0,0.033604,-0.0007325,0.0098616,-0.25417,0.014245,0.030455,8.8116e-07,0.86,0.41,0
0.041977,0.0015554,0.033593,-0.00074844,0.0098533,-0.00014967,0,0,0.061723,-0.027565,0,-0.00077828,0,0,0,0.033594,-0.00074909,0.0098533,-0.24972,0.014233,0.030458,8.8075e-07,0.87,0.41,0
0.042595,0.0015666,0.033583,-0.00076431,0.0098457,-0.00014525,0,0,0.061718,-0.027586,0,-0.00075529,0,0,0,0.033584,-0.00076493,0.0098457,-0.2423,0.014222,0.030463,8.8042e-07,0.88,0.41,0
0.043212,0.0015767,0.033575,-0.00077932,0.0098387,-0.00013915,0,0,0.061714,-0.027607,0,-0.0007236,0,0,0,0.033576,-0.00077988,0.0098387,-0.23209,0.014212,0.030467,8.8015e-07,0.89,0.41,0
0.043829,0.0015857,0.033568,-0.00079335,0.0098324,-0.00013151,0,0,0.061712,-0.027627,0,-0.00068387,0,0,0,0.033568,-0.00079385,0.0098324,-0.2193,0.014202,0.030472,8.7995e-07,0.9,0.41,0
0.044446,0.0015937,0.033562,-0.00080631,0.0098266,-0.00012245,0,0,0.061711,-0.027646,0,-0.00063676,0,0,0,0.033562,-0.00080675,0.0098266,-0.20416,0.014194,0.030477,8.798e-07,0.91,0.41,0
0.045063,0.0016008,0.033556,-0.00081813,0.0098214,-0.00011211,0,0,0.061711,-0.027663,0,-0.00058297,0,0,0,0.033557,-0.00081849,0.0098214,-0.18688,0.014187,0.030481,8.7968e-07,0.92,0.41,0
0.04568,0.0016069,0.033552,-0.00082871,0.0098169,-0.00010062,0,0,0.061711,-0.027679,0,-0.00052321,0,0,0,0.033552,-0.00082901,0.0098169,-0.16769,0.01418,0.030486,8.7959e-07,0.93,0.41,0
0.046297,0.0016121,0.033548,-0.00083801,0.009813,-8.8119e-05,0,0,0.061711,-0.027693,0,-0.00045822,0,0,0,0.033548,-0.00083824,0.009813,-0.14684,0.014174,0.03049,8.7953e-07,0.94,0.41,0
0.046914,0.0016165,0.033545,-0.00084597,0.0098096,-7.4756e-05,0,0,0.061711,-0.027705,0,-0.00038873,0,0,0,0.033545,-0.00084613,0.0098096,-0.12455,0.01417,0.030493,8.7949e-07,0.95,0.41,0
0.047531,0.00162,0.033542,-0.00085254,0.0098069,-6.0671e-05,0,0,0.061712,-0.027715,0,-0.00031549,0,0,0,0.033542,-0.00085265,0.0098069,-0.10107,0.014166,0.030496,8.7946e-07,0.96,0.41,0
0.048149,0.0016228,0.03354,-0.00085768,0.0098048,-4.6009e-05,0,0,0.061712,-0.027722,0,-0.00023925,0,0,0,0.03354,-0.00085775,0.0098048,-0.07664,0.014163,0.030498,8.7944e-07,0.97,0.41,0
0.048766,0.0016247,0.033539,-0.00086138,0.0098033,-3.0913e-05,0,0,0.061713,-0.027728,0,-0.00016075,0,0,0,0.033539,-0.00086141,0.0098033,-0.051491,0.01416,0.0305,8.7943e-07,0.98,0.41,0
0.049383,0.0016259,0.033538,-0.0008636,0.0098024,-1.3681e-05,0,0,0.061713,-0.027732,0,-7.1139e-05,0,0,0,0.033538,-0.00086361,0.0098024,-0.022787,0.014159,0.030501,8.7942e-07,0.99,0.41,0
0.049691,0.0016262,0.033538,-0.00086434,0.0098021,-4.0859e-06,0,0,0.061713,-0.027733,0,-2.1247e-05,0,0,0,0.033538,-0.00086435,0.0098021,-0.0068054,0.014159,0.030502,8.7942e-07,1,0.41,0
0.00025933,1.9405e-05,0.034893,0.014759,0.014896,0.00074723,0,0,0.051993,-0.00035533,0,0.0038856,0,0,0,0.034921,0.014731,0.014896,2.1201,0.021516,0.020109,4.1762e-07,0,0.42,0
0.00051993,4.2025e-05,0.034918,0.01457,0.014846,0.00077243,0,0,0.052185,-0.00071779,0,0.0040166,0,0,0,0.034947,0.014541,0.014846,2.1671,0.021445,0.020256,4.2668e-07,0.01,0.42,0
0.0010437,9.341e-05,0.035009,0.014204,0.014764,0.00084022,0,0,0.052638,-0.0014562,0,0.0043692,0,0,0,0.035043,0.014169,0.014764,2.3037,0.021326,0.020584,4.4689e-07,0.02,0.42,0
0.0015727,0.0001567,0.035146,0.013839,0.014695,0.00091458,0,0,0.05317,-0.0022258,0,0.0047558,0,0,0,0.035185,0.0138,0.014695,2.4489,0.021227,0.020953,4.6978e-07,0.03,0.42,0
0.0021071,0.0002314,0.03529,0.01345,0.014622,0.00097002,0,0,0.053737,-0.0030476,0,0.0050441,0,0,0,0.035334,0.013407,0.014622,2.5336,0.021121,0.021346,4.9445e-07,0.04,0.42,0
0.0026474,0.00031748,0.035435,0.013011,0.014534,0.0010064,0,0,0.054344,-0.0039602,0,0.0052333,0,0,0,0.035481,0.012965,0.014534,2.5598,0.020993,0.021775,5.215e-07,0.05,0.42,0
0.003194,0.00041533,0.035554,0.012511,0.01442,0.0010306,0,0,0.054951,-0.0049629,0,0.0053591,0,0,0,0.035601,0.012464,0.01442,2.5503,0.020828,0.022225,5.5011e-07,0.06,0.42,0
0.0037464,0.00052815,0.036013,0.011933,0.014384,0.00098375,0,0,0.054926,-0.0061212,0,0.0050214,0,0,0,0.036055,0.011892,0.014384,2.347,0.020777,0.023023,6.2105e-07,0.07,0.42,0
0.0042961,0.00065046,0.036898,0.011567,0.014539,0.0010925,0,0,0.052124,-0.0067935,0,0.0048001,0,0,0,0.036961,0.011503,0.014539,2.4525,0.021001,0.024087,7.3407e-07,0.08,0.42,0
0.0048022,0.00075107,0.03677,0.011644,0.014524,0.0018529,0,0,0.045059,-0.0058096,0,0.0067586,0,0,0,0.03697,0.011443,0.014524,4.2824,0.020979,0.024137,7.5489e-07,0.09,0.42,0
0.0052096,0.00080057,0.03609,0.011976,0.01442,0.0028047,0,0,0.036321,-0.0040313,0,0.0090424,0,0,0,0.036463,0.011603,0.01442,6.6701,0.020829,0.023582,6.9253e-07,0.1,0.42,0
0.0055279,0.00080879,0.036669,0.012232,0.01467,0.0030715,0,0,0.030669,-0.0033222,0,0.0086458,0,0,0,0.037063,0.011838,0.01467,7.1194,0.02119,0.023936,6.8834e-07,0.11,0.42,0
0.0058196,0.00080207,0.03735,0.011933,0.014785,0.0028129,0,0,0.029335,-0.0037077,0,0.0073136,0,0,0,0.037661,0.011621,0.014785,6.2559,0.021356,0.024613,7.2382e-07,0.12,0.42,0
0.0061146,0.00079009,0.037354,0.011152,0.014552,0.0025139,0,0,0.029643,-0.0044194,0,0.0065361,0,0,0,0.037596,0.010911,0.014552,5.4421,0.02102,0.025065,7.5137e-07,0.13,0.42,0
0.0064125,0.00077336,0.0373,0.010302,0.014281,0.0022929,0,0,0.029925,-0.0051717,0,0.0059616,0,0,0,0.037494,0.010108,0.014281,4.8278,0.020627,0.025558,7.8072e-07,0.14,0.42,0
0.0067131,0.00075374,0.037222,0.0094852,0.014012,0.0021504,0,0,0.030172,-0.0058849,0,0.005591,0,0,0,0.037388,0.0093187,0.014012,4.4116,0.02024,0.026043,8.085e-07,0.15,0.42,0
0.0070159,0.00073283,0.037121,0.0087487,0.013761,0.00206,0,0,0.030368,-0.0065158,0,0.0053561,0,0,0,0.03727,0.0085994,0.013761,4.1342,0.019877,0.026471,8.3167e-07,0.16,0.42,0
0.0073204,0.00071149,0.037005,0.0081065,0.013533,0.0019887,0,0,0.030513,-0.0070549,0,0.0051705,0,0,0,0.037142,0.0079698,0.013533,3.9206,0.019548,0.026827,8.4943e-07,0.17,0.42,0
0.0076262,0.00068997,0.03688,0.0075403,0.013326,0.0019127,0,0,0.03062,-0.0075216,0,0.0049731,0,0,0,0.037005,0.0074155,0.013326,3.7166,0.019249,0.027122,8.6276e-07,0.18,0.42,0
0.0079328,0.00066812,0.036756,0.0070243,0.013134,0.0018215,0,0,0.030709,-0.0079429,0,0.004736,0,0,0,0.036868,0.0069125,0.013134,3.4952,0.018972,0.027381,8.7344e-07,0.19,0.42,0
0.0082404,0.00064558,0.036642,0.0065372,0.012954,0.0017147,0,0,0.030795,-0.0083415,0,0.0044581,0,0,0,0.03674,0.0064393,0.012954,3.2517,0.018711,0.027626,8.8313e-07,0.2,0.42,0
0.0085487,0.00062199,0.036542,0.0060653,0.012782,0.0015962,0,0,0.030887,-0.0087317,0,0.0041502,0,0,0,0.036625,0.0059814,0.012782,2.9923,0.018463,0.027873,8.9288e-07,0.21,0.42,0
0.0088581,0.00059706,0.036456,0.0056006,0.012617,0.0014711,0,0,0.030991,-0.0091213,0,0.0038249,0,0,0,0.036527,0.0055302,0.012617,2.7257,0.018225,0.028131,9.0327e-07,0.22,0.42,0
0.0091686,0.00057056,0.036385,0.0051386,0.012457,0.0013435,0,0,0.031106,-0.0095141,0,0.0034931,0,0,0,0.036443,0.0050805,0.012457,2.4596,0.017994,0.028403,9.145e-07,0.23,0.42,0
0.0094802,0.00054234,0.036327,0.0046766,0.012301,0.0012165,0,0,0.031234,-0.0099119,0,0.0031629,0,0,0,0.036374,0.0046296,0.012301,2.1998,0.017768,0.028689,9.2663e-07,0.24,0.42,0
0.0097932,0.0005123,0.036282,0.0042134,0.012149,0.0010922,0,0,0.031373,-0.010316,0,0.0028397,0,0,0,0.036319,0.0041759,0.012149,1.9502,0.017548,0.028992,9.3964e-07,0.25,0.42,0
0.010108,0.00048039,0.036247,0.0037482,0.011999,0.00097201,0,0,0.031523,-0.010725,0,0.0025272,0,0,0,0.036276,0.0037189,0.011999,1.7133,0.017331,0.029309,9.5348e-07,0.26,0.42,0
0.010424,0.00044658,0.036223,0.003281,0.011851,0.00085678,0,0,0.031683,-0.011141,0,0.0022276,0,0,0,0.036246,0.0032585,0.011851,1.4904,0.017118,0.02964,9.681e-07,0.27,0.42,0
0.010741,0.00041089,0.036209,0.0028119,0.011706,0.00074689,0,0,0.031854,-0.011563,0,0.0019419,0,0,0,0.036226,0.002795,0.011706,1.2819,0.016909,0.029986,9.8345e-07,0.28,0.42,0
0.011061,0.00037333,0.036205,0.0023417,0.011564,0.00064233,0,0,0.032033,-0.011989,0,0.0016701,0,0,0,0.036217,0.0023293,0.011564,1.0876,0.016704,0.030344,9.995e-07,0.29,0.42,0
0.011382,0.00033393,0.036211,0.0018714,0.011425,0.00054276,0,0,0.032222,-0.012419,0,0.0014112,0,0,0,0.03622,0.0018626,0.011425,0.90647,0.016502,0.030714,1.0162e-06,0.3,0.42,0
0.011705,0.00029274,0.036227,0.0014027,0.011289,0.00044745,0,0,0.03242,-0.012852,0,0.0011634,0,0,0,0.036233,0.0013968,0.011289,0.7371,0.016306,0.031094,1.0335e-06,0.31,0.42,0
0.01203,0.00024978,0.036253,0.00093804,0.011157,0.00035538,0,0,0.032625,-0.013285,0,0.00092399,0,0,0,0.036257,0.00093432,0.011157,0.57748,0.016116,0.031482,1.0513e-06,0.32,0.42,0
0.012358,0.00020507,0.036289,0.00048069,0.011031,0.00026524,0,0,0.032836,-0.013715,0,0.00068964,0,0,0,0.036291,0.00047858,0.011031,0.42529,0.015934,0.031875,1.0694e-06,0.33,0.42,0
0.012687,0.00015864,0.036333,3.5145e-05,0.01091,0.00017566,0,0,0.033049,-0.014138,0,0.00045672,0,0,0,0.036334,3.4146e-05,0.01091,0.27811,0.01576,0.032267,1.0878e-06,0.34,0.42,0
0.013019,0.00011051,0.036384,-0.00039262,0.010797,8.5461e-05,0,0,0.033262,-0.014547,0,0.0002222,0,0,0,0.036384,-0.00039297,0.010797,0.13391,0.015596,0.032654,1.1059e-06,0.35,0.42,0
0.013352,6.0702e-05,0.036439,-0.00079502,0.010693,-5.7946e-06,0,0,0.033469,-0.014934,0,-1.5066e-05,0,0,0,0.036439,-0.00079518,0.010693,-0.008239,0.015446,0.033024,1.1234e-06,0.36,0.42,0
0.013688,9.2688e-06,0.036494,-0.001163,0.010599,-9.7087e-05,0,0,0.033663,-0.015291,0,-0.00025243,0,0,0,0.036494,-0.0011634,0.010599,-0.14716,0.01531,0.033369,1.1398e-06,0.37,0.42,0
0.014026,-4.3659e-05,0.036545,-0.0014866,0.010518,-0.00018513,0,0,0.033836,-0.015605,0,-0.00048133,0,0,0,0.036546,-0.0014876,0.010518,-0.27846,0.015192,0.033676,1.1544e-06,0.38,0.42,0
0.014365,-9.7839e-05,0.03659,-0.0017566,0.01045,-0.00026376,0,0,0.033982,-0.015868,0,-0.00068578,0,0,0,0.036592,-0.0017585,0.01045,-0.39381,0.015094,0.033935,1.1667e-06,0.39,0.42,0
0.014705,-0.00015286,0.036626,-0.001967,0.010398,-0.00032415,0,0,0.034097,-0.016074,0,-0.00084279,0,0,0,0.036629,-0.0019697,0.010398,-0.48108,0.015019,0.034139,1.1763e-06,0.4,0.42,0
0.015047,-0.00020811,0.036655,-0.0021172,0.010361,-0.00035618,0,0,0.034182,-0.016222,0,-0.00092608,0,0,0,0.036658,-0.0021204,0.010361,-0.5263,0.014966,0.034286,1.1835e-06,0.41,0.42,0
0.015389,-0.00026277,0.036676,-0.0022133,0.010339,-0.00035072,0,0,0.034239,-0.016318,0,-0.00091187,0,0,0,0.03668,-0.0022165,0.010339,-0.51673,0.014934,0.034383,1.1882e-06,0.42,0.42,0
0.015732,-0.00031582,0.036685,-0.002263,0.010327,-0.00029924,0,0,0.034266,-0.016367,0,-0.00077802,0,0,0,0.036688,-0.0022653,0.010327,-0.44021,0.014916,0.03443,1.1904e-06,0.43,0.42,0
0.016074,-0.00036598,0.036674,-0.0022637,0.010323,-0.00018448,0,0,0.034256,-0.016363,0,-0.00047965,0,0,0,0.036675,-0.002265,0.010323,-0.27132,0.014911,0.034418,1.1892e-06,0.44,0.42,0
0.016417,-0.00041142,0.036651,-0.0022163,0.01033,3.3658e-05,0,0,0.034217,-0.016311,0,8.7512e-05,0,0,0,0.036652,-0.0022175,0.01033,0.04998,0.014922,0.03436,1.1858e-06,0.45,0.42,0
0.016759,-0.00044973,0.036694,-0.0022024,0.010347,0.00033955,0,0,0.03425,-0.016315,0,0.00088283,0,0,0,0.036698,-0.0022071,0.010347,0.49969,0.014946,0.034392,1.1906e-06,0.46,0.42,0
0.017102,-0.00048238,0.036355,-0.0018422,0.010354,0.00087835,0,0,0.036222,-0.016735,0,0.0028837,0,0,0,0.036391,-0.0018789,0.010354,1.4203,0.014955,0.033861,1.174e-06,0.47,0.42,0
0.017479,-0.00049356,0.036514,-0.00052132,0.010798,0.0012399,0,0,0.043105,-0.018197,0,0.0048768,0,0,0,0.036584,-0.00059152,0.010798,2.1414,0.015597,0.033011,1.2039e-06,0.48,0.42,0
0.017963,-0.00043896,0.037551,0.0013551,0.011672,0.0010964,0,0,0.053842,-0.020631,0,0.0052245,0,0,0,0.037608,0.0012973,0.011672,1.9335,0.016859,0.032416,1.2454e-06,0.49,0.42,0
0.018567,-0.00032437,0.037491,0.0025199,0.012003,0.0010257,0,0,0.062356,-0.0229,0,0.005399,0,0,0,0.03753,0.0024811,0.012003,1.7519,0.017338,0.031398,1.143e-06,0.5,0.42,0
0.019218,-0.00021027,0.036871,0.0024191,0.011787,0.00090204,0,0,0.065219,-0.024357,0,0.0046906,0,0,0,0.036898,0.0023927,0.011787,1.5028,0.017026,0.030899,1.0561e-06,0.51,0.42,0
0.019872,-0.0001183,0.036698,0.0018372,0.011561,0.00062422,0,0,0.065358,-0.025281,0,0.003246,0,0,0,0.03671,0.0018248,0.011561,1.0265,0.016699,0.03118,1.0603e-06,0.52,0.42,0
0.020525,-3.8483e-05,0.036502,0.0013843,0.011366,0.00047291,0,0,0.065354,-0.025952,0,0.0024591,0,0,0,0.036509,0.0013772,0.011366,0.77155,0.016417,0.031355,1.0583e-06,0.53,0.42,0
0.021179,3.3272e-05,0.036306,0.0010211,0.011198,0.00038226,0,0,0.065281,-0.026461,0,0.0019877,0,0,0,0.036311,0.0010164,0.011198,0.62042,0.016175,0.031465,1.0533e-06,0.54,0.42,0
0.021831,9.946e-05,0.036118,0.00072537,0.011053,0.00033037,0,0,0.06517,-0.026852,0,0.0017179,0,0,0,0.036122,0.0007218,0.011053,0.53442,0.015966,0.031531,1.0465e-06,0.55,0.42,0
0.022482,0.00016175,0.035939,0.00048374,0.010927,0.00030364,0,0,0.065032,-0.027152,0,0.0015789,0,0,0,0.035942,0.00048072,0.010927,0.49025,0.015783,0.031563,1.0387e-06,0.56,0.42,0
0.023132,0.00022126,0.035768,0.00028688,0.010816,0.00029247,0,0,0.064873,-0.027377,0,0.0015208,0,0,0,0.03577,0.00028408,0.010816,0.47188,0.015624,0.031567,1.0301e-06,0.57,0.42,0
0.02378,0.00027874,0.035603,0.00012755,0.010719,0.00028993,0,0,0.064699,-0.027539,0,0.0015076,0,0,0,0.035606,0.00012482,0.010719,0.46787,0.015483,0.031548,1.0209e-06,0.58,0.42,0
0.024426,0.00033467,0.035446,-2.9424e-07,0.010634,0.00029106,0,0,0.064512,-0.027649,0,0.0015135,0,0,0,0.035449,-3.0147e-06,0.010634,0.47014,0.01536,0.03151,1.0114e-06,0.59,0.42,0
0.02507,0.00038933,0.035296,-0.00010191,0.010558,0.00029246,0,0,0.064317,-0.027716,0,0.0015208,0,0,0,0.035298,-0.00010463,0.010558,0.47311,0.015251,0.031457,1.0016e-06,0.6,0.42,0
0.025712,0.00044283,0.035152,-0.00018191,0.010491,0.0002919,0,0,0.064118,-0.02775,0,0.0015179,0,0,0,0.035155,-0.0001846,0.010491,0.47309,0.015154,0.031394,9.9181e-07,0.61,0.42,0
0.026352,0.00049521,0.035015,-0.00024437,0.010431,0.00028805,0,0,0.063919,-0.027757,0,0.0014978,0,0,0,0.035018,-0.00024697,0.010431,0.46786,0.015067,0.031322,9.8215e-07,0.62,0.42,0
0.02699,0.00054644,0.034886,-0.00029283,0.010378,0.00028024,0,0,0.063722,-0.027744,0,0.0014572,0,0,0,0.034889,-0.00029528,0.010378,0.45625,0.014991,0.031246,9.7276e-07,0.63,0.42,0
0.027627,0.00059644,0.034765,-0.00033035,0.01033,0.00026829,0,0,0.06353,-0.027718,0,0.0013951,0,0,0,0.034767,-0.0003326,0.01033,0.43787,0.014922,0.031168,9.6374e-07,0.64,0.42,0
0.028261,0.0006451,0.034652,-0.00035955,0.010288,0.00025238,0,0,0.063346,-0.027683,0,0.0013124,0,0,0,0.034654,-0.00036154,0.010288,0.41289,0.01486,0.03109,9.5517e-07,0.65,0.42,0
0.028894,0.00069232,0.034546,-0.00038261,0.010249,0.00023288,0,0,0.063173,-0.027642,0,0.001211,0,0,0,0.034548,-0.00038432,0.010249,0.38191,0.014804,0.031014,9.4713e-07,0.66,0.42,0
0.029524,0.00073799,0.034449,-0.00040135,0.010214,0.00021034,0,0,0.06301,-0.0276,0,0.0010938,0,0,0,0.03445,-0.00040275,0.010214,0.34574,0.014754,0.030942,9.3966e-07,0.67,0.42,0
0.030154,0.00078201,0.034359,-0.00041723,0.010182,0.00018539,0,0,0.062859,-0.027559,0,0.00096401,0,0,0,0.03436,-0.00041833,0.010182,0.30536,0.014708,0.030874,9.3278e-07,0.68,0.42,0
0.030782,0.0008243,0.034277,-0.00043142,0.010154,0.00015866,0,0,0.06272,-0.027521,0,0.00082502,0,0,0,0.034278,-0.00043224,0.010154,0.26185,0.014666,0.030812,9.265e-07,0.69,0.42,0
0.031408,0.00086478,0.034202,-0.00044483,0.010127,0.0001308,0,0,0.062595,-0.027487,0,0.00068016,0,0,0,0.034203,-0.00044541,0.010127,0.21625,0.014628,0.030756,9.2081e-07,0.7,0.42,0
0.032034,0.00090341,0.034134,-0.00045814,0.010103,0.00010243,0,0,0.062481,-0.027458,0,0.00053265,0,0,0,0.034134,-0.00045851,0.010103,0.16961,0.014593,0.030706,9.1571e-07,0.71,0.42,0
0.032658,0.00094015,0.034073,-0.00047183,0.01008,7.4123e-05,0,0,0.06238,-0.027435,0,0.00038544,0,0,0,0.034073,-0.00047205,0.01008,0.1229,0.01456,0.030662,9.1116e-07,0.72,0.42,0
0.033281,0.00097497,0.034018,-0.00048622,0.010059,4.6382e-05,0,0,0.062291,-0.027419,0,0.00024118,0,0,0,0.034018,-0.00048633,0.010059,0.07698,0.01453,0.030625,9.0714e-07,0.73,0.42,0
0.033904,0.0010079,0.033968,-0.00050151,0.01004,1.9656e-05,0,0,0.062213,-0.027408,0,0.00010221,0,0,0,0.033968,-0.00050156,0.01004,0.032636,0.014502,0.030593,9.0362e-07,0.74,0.42,0
0.034525,0.0010389,0.033924,-0.00051778,0.010022,-5.6741e-06,0,0,0.062145,-0.027403,0,-2.9505e-05,0,0,0,0.033924,-0.00051781,0.010022,-0.0094728,0.014476,0.030567,9.0056e-07,0.75,0.42,0
0.035147,0.001068,0.033885,-0.00053503,0.010005,-2.9294e-05,0,0,0.062087,-0.027404,0,-0.00015233,0,0,0,0.033885,-0.00053508,0.010005,-0.048794,0.014451,0.030545,8.9791e-07,0.76,0.42,0
0.035767,0.0010953,0.03385,-0.0005532,0.0099889,-5.0952e-05,0,0,0.062038,-0.027409,0,-0.00026495,0,0,0,0.03385,-0.00055329,0.0099889,-0.084886,0.014428,0.030529,8.9564e-07,0.77,0.42,0
0.036387,0.0011208,0.033819,-0.00057218,0.0099739,-7.0457e-05,0,0,0.061996,-0.02742,0,-0.00036638,0,0,0,0.033819,-0.00057234,0.0099739,-0.11741,0.014407,0.030517,8.9372e-07,0.78,0.42,0
0.037007,0.0011446,0.033791,-0.00059181,0.0099598,-8.7672e-05,0,0,0.061962,-0.027434,0,-0.00045589,0,0,0,0.033792,-0.00059205,0.0099598,-0.14612,0.014386,0.030508,8.921e-07,0.79,0.42,0
0.037627,0.0011667,0.033767,-0.00061195,0.0099466,-0.00010251,0,0,0.061934,-0.027452,0,-0.00053305,0,0,0,0.033768,-0.00061226,0.0099466,-0.17086,0.014367,0.030503,8.9075e-07,0.8,0.42,0
0.038246,0.0011871,0.033746,-0.00063239,0.0099341,-0.00011492,0,0,0.061911,-0.027473,0,-0.0005976,0,0,0,0.033746,-0.00063278,0.0099341,-0.19155,0.014349,0.030501,8.8964e-07,0.81,0.42,0
0.038865,0.001206,0.033727,-0.00065296,0.0099223,-0.00012491,0,0,0.061893,-0.027496,0,-0.00064953,0,0,0,0.033728,-0.00065342,0.0099223,-0.20818,0.014332,0.030501,8.8873e-07,0.82,0.42,0
0.039484,0.0012234,0.033711,-0.00067347,0.0099113,-0.00013249,0,0,0.061879,-0.02752,0,-0.00068897,0,0,0,0.033712,-0.00067399,0.0099113,-0.22079,0.014316,0.030503,8.88e-07,0.83,0.42,0
0.040102,0.0012394,0.033697,-0.00069374,0.0099009,-0.00013773,0,0,0.061869,-0.027546,0,-0.00071621,0,0,0,0.033697,-0.0006943,0.0099009,-0.22948,0.014301,0.030507,8.8742e-07,0.84,0.42,0
0.040721,0.001254,0.033684,-0.00071359,0.0098912,-0.0001407,0,0,0.061862,-0.027572,0,-0.00073164,0,0,0,0.033685,-0.00071417,0.0098912,-0.23437,0.014287,0.030511,8.8697e-07,0.85,0.42,0
0.04134,0.0012673,0.033673,-0.00073286,0.0098821,-0.00014149,0,0,0.061857,-0.027599,0,-0.00073576,0,0,0,0.033674,-0.00073345,0.0098821,-0.23564,0.014274,0.030517,8.8662e-07,0.86,0.42,0
0.041958,0.0012795,0.033664,-0.00075141,0.0098737,-0.00014023,0,0,0.061854,-0.027625,0,-0.00072917,0,0,0,0.033664,-0.00075198,0.0098737,-0.23346,0.014262,0.030524,8.8636e-07,0.87,0.42,0
0.042577,0.0012904,0.033656,-0.00076908,0.0098659,-0.00013702,0,0,0.061853,-0.027651,0,-0.00071251,0,0,0,0.033656,-0.00076963,0.0098659,-0.22807,0.014251,0.03053,8.8618e-07,0.88,0.42,0
0.043195,0.0013003,0.033648,-0.00078576,0.0098588,-0.00013201,0,0,0.061853,-0.027676,0,-0.00068646,0,0,0,0.033649,-0.00078626,0.0098588,-0.21967,0.01424,0.030537,8.8605e-07,0.89,0.42,0
0.043814,0.0013091,0.033642,-0.00080133,0.0098522,-0.00012534,0,0,0.061854,-0.027699,0,-0.00065175,0,0,0,0.033643,-0.00080178,0.0098522,-0.2085,0.014231,0.030544,8.8596e-07,0.9,0.42,0
0.044432,0.0013169,0.033637,-0.00081569,0.0098463,-0.00011714,0,0,0.061855,-0.027721,0,-0.00060915,0,0,0,0.033637,-0.00081609,0.0098463,-0.19482,0.014222,0.030551,8.8592e-07,0.91,0.42,0
0.045051,0.0013237,0.033632,-0.00082876,0.009841,-0.00010758,0,0,0.061857,-0.027741,0,-0.00055942,0,0,0,0.033633,-0.0008291,0.009841,-0.17888,0.014215,0.030557,8.8589e-07,0.92,0.42,0
0.045669,0.0013297,0.033628,-0.00084045,0.0098364,-9.6799e-05,0,0,0.061859,-0.02776,0,-0.00050335,0,0,0,0.033629,-0.00084073,0.0098364,-0.16091,0.014208,0.030563,8.8589e-07,0.93,0.42,0
0.046288,0.0013348,0.033625,-0.00085072,0.0098323,-8.4949e-05,0,0,0.061861,-0.027776,0,-0.00044174,0,0,0,0.033625,-0.00085093,0.0098323,-0.14118,0.014202,0.030568,8.859e-07,0.94,0.42,0
0.046907,0.001339,0.033623,-0.00085949,0.0098289,-7.2185e-05,0,0,0.061863,-0.02779,0,-0.00037536,0,0,0,0.033623,-0.00085964,0.0098289,-0.11995,0.014197,0.030573,8.8591e-07,0.95,0.42,0
0.047525,0.0013424,0.03362,-0.00086672,0.0098261,-5.866e-05,0,0,0.061865,-0.027801,0,-0.00030503,0,0,0,0.033621,-0.00086682,0.0098261,-0.097462,0.014193,0.030577,8.8593e-07,0.96,0.42,0
0.048144,0.0013451,0.033619,-0.00087238,0.0098239,-4.4527e-05,0,0,0.061867,-0.02781,0,-0.00023154,0,0,0,0.033619,-0.00087244,0.0098239,-0.073971,0.01419,0.03058,8.8595e-07,0.97,0.42,0
0.048763,0.001347,0.033618,-0.00087645,0.0098224,-2.9938e-05,0,0,0.061868,-0.027817,0,-0.00015568,0,0,0,0.033618,-0.00087648,0.0098224,-0.04973,0.014188,0.030582,8.8596e-07,0.98,0.42,0
0.049381,0.0013481,0.033617,-0.00087889,0.0098214,-1.3256e-05,0,0,0.061868,-0.027821,0,-6.8929e-05,0,0,0,0.033617,-0.0008789,0.0098214,-0.022018,0.014187,0.030583,8.8597e-07,0.99,0.42,0
0.049691,0.0013485,0.033617,-0.00087971,0.0098211,-3.9629e-06,0,0,0.061869,-0.027822,0,-2.0607e-05,0,0,0,0.033617,-0.00087971,0.0098211,-0.0065824,0.014186,0.030584,8.8598e-07,1,0.42,0
0.00025623,1.6158e-05,0.034479,0.014612,0.014727,0.00062371,0,0,0.051354,-0.00029907,0,0.0032433,0,0,0,0.034499,0.014592,0.014727,1.7945,0.021273,0.019839,4.0108e-07,0,0.43,0
0.00051354,3.5409e-05,0.034499,0.014448,0.014684,0.00064992,0,0,0.051519,-0.0006141,0,0.0033796,0,0,0,0.03452,0.014426,0.014684,1.8513,0.02121,0.019967,4.0872e-07,0.01,0.43,0
0.0010304,7.9837e-05,0.034572,0.014118,0.014607,0.00071968,0,0,0.051909,-0.001272,0,0.0037423,0,0,0,0.034598,0.014092,0.014607,2.0081,0.021099,0.020254,4.2596e-07,0.02,0.43,0
0.0015517,0.00013572,0.034675,0.013772,0.014534,0.00079542,0,0,0.052367,-0.0019825,0,0.0041362,0,0,0,0.034706,0.013741,0.014534,2.1723,0.020994,0.02058,4.4566e-07,0.03,0.43,0
0.0020777,0.00020249,0.034768,0.013392,0.014448,0.00085122,0,0,0.052833,-0.0027466,0,0.0044263,0,0,0,0.034802,0.013358,0.014448,2.2738,0.020869,0.020922,4.6626e-07,0.04,0.43,0
0.0026084,0.00028,0.034838,0.012968,0.014342,0.00089355,0,0,0.053289,-0.0035715,0,0.0046465,0,0,0,0.034874,0.012931,0.014342,2.3338,0.020716,0.021274,4.8739e-07,0.05,0.43,0
0.0031435,0.00036878,0.034883,0.01249,0.014212,0.00093429,0,0,0.053746,-0.0044776,0,0.0048583,0,0,0,0.034922,0.012451,0.014212,2.3836,0.020528,0.021646,5.0945e-07,0.06,0.43,0
0.0036833,0.00046995,0.034935,0.011861,0.014039,0.00095738,0,0,0.054329,-0.0056622,0,0.0049784,0,0,0,0.034975,0.011821,0.014039,2.3741,0.020278,0.022131,5.3792e-07,0.07,0.43,0
0.0042301,0.00058087,0.035385,0.011252,0.013991,0.00094613,0,0,0.054459,-0.0069676,0,0.0047245,0,0,0,0.035425,0.011212,0.013991,2.2266,0.020209,0.022952,5.9863e-07,0.08,0.43,0
0.0047768,0.00068553,0.036026,0.010997,0.014107,0.0011429,0,0,0.050762,-0.0070886,0,0.0049895,0,0,0,0.036113,0.01091,0.014107,2.6654,0.020377,0.023771,6.8366e-07,0.09,0.43,0
0.0052557,0.00075474,0.035977,0.011215,0.014158,0.0018647,0,0,0.041493,-0.0054736,0,0.0065663,0,0,0,0.036196,0.010996,0.014158,4.4808,0.02045,0.023786,7.0458e-07,0.1,0.43,0
0.005612,0.00077584,0.036042,0.011797,0.014352,0.0026568,0,0,0.032669,-0.0038276,0,0.0077571,0,0,0,0.03637,0.011469,0.014352,6.2697,0.02073,0.023598,6.738e-07,0.11,0.43,0
0.0059058,0.0007671,0.036827,0.012012,0.014652,0.0028295,0,0,0.029462,-0.0035217,0,0.0074873,0,0,0,0.03715,0.011689,0.014652,6.4255,0.021164,0.024117,6.9062e-07,0.12,0.43,0
0.0061987,0.00074739,0.037262,0.01142,0.014604,0.0025891,0,0,0.029454,-0.0041398,0,0.0067316,0,0,0,0.037521,0.01116,0.014604,5.6771,0.021095,0.024821,7.343e-07,0.13,0.43,0
0.0064949,0.00072264,0.037191,0.010476,0.0143,0.0023761,0,0,0.029758,-0.0049711,0,0.0061779,0,0,0,0.037402,0.010265,0.0143,5.0514,0.020656,0.025363,7.6656e-07,0.14,0.43,0
0.0067938,0.0006956,0.037079,0.0095755,0.013996,0.0022541,0,0,0.030008,-0.0057473,0,0.0058606,0,0,0,0.037264,0.0093913,0.013996,4.659,0.020217,0.02588,7.9581e-07,0.15,0.43,0
0.007095,0.00066824,0.036959,0.0088094,0.013731,0.0021847,0,0,0.030197,-0.0063976,0,0.0056802,0,0,0,0.037129,0.0086403,0.013731,4.4144,0.019833,0.026316,8.1899e-07,0.16,0.43,0
0.0073978,0.00064153,0.036827,0.0081755,0.013501,0.002125,0,0,0.030324,-0.0069227,0,0.005525,0,0,0,0.036984,0.0080182,0.013501,4.2214,0.019501,0.026652,8.3515e-07,0.17,0.43,0
0.0077015,0.00061544,0.036692,0.0076325,0.013297,0.0020455,0,0,0.030413,-0.0073643,0,0.0053182,0,0,0,0.036836,0.0074886,0.013297,4.0095,0.019207,0.026918,8.465e-07,0.18,0.43,0
0.008006,0.00058947,0.036567,0.0071368,0.013111,0.0019403,0,0,0.030493,-0.0077666,0,0.0050448,0,0,0,0.036695,0.0070088,0.013111,3.7587,0.018938,0.027155,8.5584e-07,0.19,0.43,0
0.0083114,0.000563,0.03646,0.0066629,0.012937,0.0018156,0,0,0.03058,-0.0081561,0,0.0047205,0,0,0,0.036571,0.0065521,0.012937,3.4768,0.018687,0.027391,8.6514e-07,0.2,0.43,0
0.0086176,0.00053553,0.036373,0.0061979,0.012771,0.0016795,0,0,0.030682,-0.0085454,0,0.0043668,0,0,0,0.036467,0.0061041,0.012771,3.1787,0.018447,0.027639,8.7532e-07,0.21,0.43,0
0.008925,0.0005067,0.036304,0.0057355,0.012612,0.0015388,0,0,0.0308,-0.0089393,0,0.0040009,0,0,0,0.036382,0.0056577,0.012612,2.877,0.018217,0.027905,8.8663e-07,0.22,0.43,0
0.0092336,0.00047624,0.036251,0.0052726,0.012457,0.0013977,0,0,0.030932,-0.0093397,0,0.003634,0,0,0,0.036314,0.0052092,0.012457,2.5805,0.017993,0.028189,8.9906e-07,0.23,0.43,0
0.0095436,0.00044401,0.03621,0.0048078,0.012305,0.001259,0,0,0.031076,-0.0097468,0,0.0032734,0,0,0,0.036261,0.004757,0.012305,2.2944,0.017774,0.02849,9.1247e-07,0.24,0.43,0
0.0098552,0.00040988,0.03618,0.0043403,0.012156,0.0011243,0,0,0.031231,-0.01016,0,0.0029231,0,0,0,0.03622,0.0043003,0.012156,2.0218,0.017559,0.028807,9.2677e-07,0.25,0.43,0
0.010168,0.00037382,0.036159,0.0038702,0.012009,0.00099451,0,0,0.031395,-0.01058,0,0.0025857,0,0,0,0.03619,0.0038392,0.012009,1.7643,0.017346,0.029138,9.4183e-07,0.26,0.43,0
0.010483,0.00033581,0.036147,0.0033975,0.011863,0.00087012,0,0,0.031569,-0.011006,0,0.0022623,0,0,0,0.036171,0.0033741,0.011863,1.5225,0.017136,0.029484,9.5759e-07,0.27,0.43,0
0.0108,0.00029586,0.036144,0.0029229,0.01172,0.00075123,0,0,0.031751,-0.011436,0,0.0019532,0,0,0,0.036161,0.0029057,0.01172,1.2963,0.016929,0.029841,9.7397e-07,0.28,0.43,0
0.011118,0.00025399,0.036148,0.0024474,0.011579,0.0006377,0,0,0.03194,-0.011871,0,0.001658,0,0,0,0.03616,0.0024351,0.011579,1.0851,0.016725,0.03021,9.9089e-07,0.29,0.43,0
0.011438,0.00021026,0.036161,0.0019723,0.01144,0.0005291,0,0,0.032137,-0.012308,0,0.0013757,0,0,0,0.036169,0.0019639,0.01144,0.88772,0.016524,0.030589,1.0083e-06,0.3,0.43,0
0.011761,0.0001647,0.036181,0.0014997,0.011304,0.00042481,0,0,0.03234,-0.012746,0,0.0011045,0,0,0,0.036187,0.0014943,0.011304,0.70285,0.016328,0.030976,1.0261e-06,0.31,0.43,0
0.012085,0.00011739,0.036209,0.001032,0.011172,0.00032404,0,0,0.032548,-0.013183,0,0.00084249,0,0,0,0.036212,0.0010289,0.011172,0.5288,0.016138,0.031367,1.0442e-06,0.32,0.43,0
0.012412,6.8381e-05,0.036244,0.00057285,0.011045,0.00022591,0,0,0.032759,-0.013614,0,0.00058736,0,0,0,0.036246,0.00057126,0.011045,0.36381,0.015954,0.031761,1.0624e-06,0.33,0.43,0
0.01274,1.7733e-05,0.036285,0.0001266,0.010923,0.00012967,0,0,0.03297,-0.014036,0,0.00033715,0,0,0,0.036285,0.00012598,0.010923,0.20635,0.015778,0.032151,1.0804e-06,0.34,0.43,0
0.013071,-3.4473e-05,0.036329,-0.00030121,0.010808,3.4973e-05,0,0,0.033177,-0.014442,0,9.0931e-05,0,0,0,0.036329,-0.00030139,0.010808,0.055475,0.015612,0.032531,1.098e-06,0.35,0.43,0
0.013404,-8.8136e-05,0.036375,-0.00070396,0.010701,-5.7757e-05,0,0,0.033375,-0.014827,0,-0.00015017,0,0,0,0.036375,-0.00070419,0.010701,-0.088593,0.015457,0.032895,1.1148e-06,0.36,0.43,0
0.013739,-0.00014311,0.036419,-0.0010742,0.010603,-0.00014682,0,0,0.03356,-0.015181,0,-0.00038174,0,0,0,0.036419,-0.0010749,0.010603,-0.22384,0.015316,0.033232,1.1302e-06,0.37,0.43,0
0.014075,-0.00019918,0.036458,-0.0014045,0.010516,-0.00022885,0,0,0.033725,-0.015497,0,-0.00059502,0,0,0,0.03646,-0.001406,0.010516,-0.34591,0.01519,0.033534,1.1439e-06,0.38,0.43,0
0.014413,-0.00025603,0.036491,-0.0016884,0.010441,-0.00029864,0,0,0.033865,-0.015768,0,-0.00077645,0,0,0,0.036493,-0.0016908,0.010441,-0.44789,0.015081,0.033793,1.1554e-06,0.39,0.43,0
0.014752,-0.00031319,0.036515,-0.0019218,0.010378,-0.00034942,0,0,0.033978,-0.01599,0,-0.00090848,0,0,0,0.036518,-0.001925,0.010378,-0.5207,0.01499,0.034004,1.1646e-06,0.4,0.43,0
0.015093,-0.00037006,0.036532,-0.0021047,0.010328,-0.00037362,0,0,0.034065,-0.016163,0,-0.00097142,0,0,0,0.036535,-0.0021083,0.010328,-0.55401,0.014918,0.034167,1.1715e-06,0.41,0.43,0
0.015434,-0.00042584,0.036542,-0.0022401,0.010291,-0.00036319,0,0,0.034127,-0.01629,0,-0.00094429,0,0,0,0.036545,-0.0022436,0.010291,-0.53659,0.014864,0.034286,1.1762e-06,0.42,0.43,0
0.015775,-0.00047956,0.036552,-0.0023327,0.010266,-0.00030788,0,0,0.034172,-0.016378,0,-0.0008005,0,0,0,0.036554,-0.0023353,0.010266,-0.45376,0.014828,0.034368,1.1797e-06,0.43,0.43,0
0.016117,-0.00053,0.036581,-0.0023883,0.010258,-0.000192,0,0,0.03422,-0.01644,0,-0.0004992,0,0,0,0.036582,-0.0023896,0.010258,-0.28249,0.014817,0.034436,1.1838e-06,0.44,0.43,0
0.01646,-0.00057565,0.036687,-0.0024237,0.010279,-3.0267e-06,0,0,0.03433,-0.016513,0,-7.8694e-06,0,0,0,0.036688,-0.0024246,0.010279,-0.0049078,0.014847,0.034559,1.1949e-06,0.45,0.43,0
0.016804,-0.00061534,0.036904,-0.0025101,0.010318,0.00022281,0,0,0.034561,-0.016677,0,0.00057932,0,0,0,0.036907,-0.0025127,0.010318,0.32294,0.014904,0.034824,1.2188e-06,0.46,0.43,0
0.017151,-0.0006501,0.036898,-0.0023203,0.010373,0.00060812,0,0,0.035195,-0.016792,0,0.0017779,0,0,0,0.036918,-0.0023397,0.010373,0.93854,0.014984,0.034695,1.2274e-06,0.47,0.43,0
0.017506,-0.00066889,0.036998,-0.0011118,0.010766,0.0010037,0,0,0.039472,-0.017206,0,0.00352,0,0,0,0.037044,-0.0011573,0.010766,1.6447,0.015551,0.033872,1.2244e-06,0.48,0.43,0
0.01794,-0.00063631,0.037485,0.0011026,0.011576,0.001159,0,0,0.050417,-0.019084,0,0.0051951,0,0,0,0.037541,0.0010461,0.011576,1.9764,0.016721,0.032571,1.1943e-06,0.49,0.43,0
0.01852,-0.0005488,0.037478,0.0027688,0.012074,0.001228,0,0,0.061424,-0.021907,0,0.0063044,0,0,0,0.037531,0.002716,0.012074,2.0924,0.01744,0.031224,1.1113e-06,0.5,0.43,0
0.019173,-0.00045233,0.037106,0.0027562,0.011959,0.0011034,0,0,0.065383,-0.023926,0,0.0057375,0,0,0,0.037144,0.0027181,0.011959,1.8442,0.017274,0.030862,1.0656e-06,0.51,0.43,0
0.019827,-0.00037031,0.036859,0.0020408,0.01167,0.00084244,0,0,0.065492,-0.025036,0,0.0043807,0,0,0,0.036881,0.002019,0.01167,1.3877,0.016857,0.031178,1.0683e-06,0.52,0.43,0
0.020482,-0.00029766,0.036619,0.0015069,0.011438,0.00067933,0,0,0.065471,-0.02582,0,0.0035325,0,0,0,0.036633,0.0014928,0.011438,1.109,0.016521,0.031373,1.0652e-06,0.53,0.43,0
0.021137,-0.0002313,0.036405,0.0010932,0.01125,0.00057739,0,0,0.065405,-0.026406,0,0.0030024,0,0,0,0.036415,0.0010831,0.01125,0.93689,0.016249,0.031504,1.0602e-06,0.54,0.43,0
0.021791,-0.00016923,0.036207,0.00076509,0.011092,0.00051605,0,0,0.0653,-0.026849,0,0.0026835,0,0,0,0.036215,0.00075704,0.011092,0.83406,0.016021,0.031585,1.0535e-06,0.55,0.43,0
0.022443,-0.00011006,0.036019,0.00050332,0.010957,0.00048148,0,0,0.065163,-0.027179,0,0.0025037,0,0,0,0.036026,0.00049633,0.010957,0.77644,0.015826,0.031625,1.0456e-06,0.56,0.43,0
0.023094,-5.285e-05,0.03584,0.00029496,0.01084,0.0004634,0,0,0.064998,-0.027418,0,0.0024097,0,0,0,0.035846,0.00028849,0.01084,0.74664,0.015658,0.031631,1.0365e-06,0.57,0.43,0
0.023743,3.012e-06,0.035667,0.00013022,0.010739,0.00045426,0,0,0.064813,-0.027583,0,0.0023621,0,0,0,0.035673,0.00012402,0.010739,0.73207,0.015512,0.031608,1.0267e-06,0.58,0.43,0
0.02439,5.7874e-05,0.035502,1.1486e-06,0.010651,0.00044869,0,0,0.064612,-0.027689,0,0.0023332,0,0,0,0.035508,-4.888e-06,0.010651,0.72386,0.015385,0.031564,1.0164e-06,0.59,0.43,0
0.025035,0.0001119,0.035344,-9.8957e-05,0.010573,0.00044304,0,0,0.064402,-0.027748,0,0.0023038,0,0,0,0.035349,-0.00010483,0.010573,0.71594,0.015273,0.031503,1.0059e-06,0.6,0.43,0
0.025678,0.00016513,0.035193,-0.00017579,0.010505,0.000435,0,0,0.064189,-0.027771,0,0.002262,0,0,0,0.035199,-0.00018145,0.010505,0.70444,0.015174,0.03143,9.9545e-07,0.61,0.43,0
0.026319,0.0002175,0.035051,-0.00023423,0.010445,0.00042327,0,0,0.063976,-0.027766,0,0.002201,0,0,0,0.035056,-0.00023957,0.010445,0.6871,0.015087,0.03135,9.8516e-07,0.62,0.43,0
0.026958,0.00026892,0.034917,-0.00027837,0.010392,0.00040726,0,0,0.063767,-0.027742,0,0.0021177,0,0,0,0.034922,-0.00028332,0.010392,0.66281,0.01501,0.031266,9.7521e-07,0.63,0.43,0
0.027594,0.00031923,0.034793,-0.00031169,0.010344,0.0003869,0,0,0.063566,-0.027706,0,0.0020119,0,0,0,0.034797,-0.00031617,0.010344,0.63134,0.014942,0.031181,9.6575e-07,0.64,0.43,0
0.028229,0.00036829,0.034677,-0.00033707,0.010302,0.00036249,0,0,0.063375,-0.027662,0,0.0018849,0,0,0,0.034681,-0.00034101,0.010302,0.59304,0.014881,0.031098,9.5684e-07,0.65,0.43,0
0.028862,0.00041596,0.03457,-0.00035687,0.010264,0.00033453,0,0,0.063196,-0.027614,0,0.0017395,0,0,0,0.034574,-0.00036023,0.010264,0.54868,0.014826,0.031018,9.4856e-07,0.66,0.43,0
0.029493,0.00046208,0.034472,-0.00037299,0.01023,0.00030367,0,0,0.063031,-0.027567,0,0.0015791,0,0,0,0.034475,-0.00037578,0.01023,0.49925,0.014776,0.030943,9.4094e-07,0.67,0.43,0
0.030122,0.00050653,0.034383,-0.00038696,0.010199,0.00027063,0,0,0.062879,-0.027523,0,0.0014073,0,0,0,0.034385,-0.00038918,0.010199,0.4459,0.014732,0.030874,9.34e-07,0.68,0.43,0
0.03075,0.00054921,0.034302,-0.00039992,0.010171,0.00023614,0,0,0.062741,-0.027483,0,0.0012279,0,0,0,0.034304,-0.00040163,0.010171,0.38983,0.014691,0.030811,9.2774e-07,0.69,0.43,0
0.031377,0.00059004,0.034229,-0.00041277,0.010145,0.00020089,0,0,0.062618,-0.02745,0,0.0010446,0,0,0,0.03423,-0.00041403,0.010145,0.33223,0.014654,0.030755,9.2214e-07,0.7,0.43,0
0.032003,0.00062895,0.034163,-0.00042613,0.010121,0.00016557,0,0,0.062509,-0.027422,0,0.00086094,0,0,0,0.034164,-0.000427,0.010121,0.27423,0.014619,0.030707,9.1717e-07,0.71,0.43,0
0.032627,0.00066591,0.034104,-0.00044042,0.010099,0.00013075,0,0,0.062412,-0.027402,0,0.00067991,0,0,0,0.034104,-0.00044097,0.010099,0.21684,0.014587,0.030665,9.1281e-07,0.72,0.43,0
0.033251,0.00070088,0.034051,-0.00045589,0.010079,9.6982e-05,0,0,0.062329,-0.02739,0,0.0005043,0,0,0,0.034051,-0.00045622,0.010079,0.16101,0.014558,0.030631,9.0901e-07,0.73,0.43,0
0.033874,0.00073389,0.034004,-0.00047267,0.01006,6.4706e-05,0,0,0.062257,-0.027384,0,0.00033647,0,0,0,0.034005,-0.00047284,0.01006,0.10751,0.01453,0.030602,9.0573e-07,0.74,0.43,0
0.034496,0.00076492,0.033963,-0.00049077,0.010042,3.4302e-05,0,0,0.062196,-0.027384,0,0.00017837,0,0,0,0.033963,-0.00049084,0.010042,0.057023,0.014505,0.03058,9.0293e-07,0.75,0.43,0
0.035118,0.00079402,0.033927,-0.00051013,0.010025,6.0712e-06,0,0,0.062144,-0.027391,0,3.157e-05,0,0,0,0.033927,-0.00051016,0.010025,0.010083,0.01448,0.030563,9.0057e-07,0.76,0.43,0
0.035739,0.00082123,0.033895,-0.00053061,0.010009,-1.9753e-05,0,0,0.062102,-0.027403,0,-0.00010272,0,0,0,0.033895,-0.00053064,0.010009,-0.032893,0.014458,0.030551,8.9858e-07,0.77,0.43,0
0.03636,0.0008466,0.033867,-0.00055204,0.0099943,-4.3002e-05,0,0,0.062068,-0.027421,0,-0.00022361,0,0,0,0.033867,-0.00055211,0.0099943,-0.071601,0.014436,0.030543,8.9695e-07,0.78,0.43,0
0.03698,0.00087018,0.033842,-0.00057423,0.0099803,-6.3566e-05,0,0,0.06204,-0.027442,0,-0.00033054,0,0,0,0.033842,-0.00057436,0.0099803,-0.10584,0.014416,0.030539,8.9561e-07,0.79,0.43,0
0.037601,0.00089204,0.03382,-0.00059696,0.009967,-8.1385e-05,0,0,0.062019,-0.027466,0,-0.0004232,0,0,0,0.033821,-0.00059716,0.009967,-0.1355,0.014397,0.030538,8.9453e-07,0.8,0.43,0
0.038221,0.00091225,0.033802,-0.00062001,0.0099545,-9.6446e-05,0,0,0.062003,-0.027494,0,-0.00050152,0,0,0,0.033802,-0.00062028,0.0099545,-0.16055,0.014379,0.03054,8.9369e-07,0.81,0.43,0
0.038841,0.00093088,0.033785,-0.00064315,0.0099427,-0.00010877,0,0,0.061991,-0.027523,0,-0.00056561,0,0,0,0.033786,-0.0006435,0.0099427,-0.18103,0.014362,0.030545,8.9303e-07,0.82,0.43,0
0.039461,0.00094801,0.033771,-0.00066618,0.0099316,-0.00011842,0,0,0.061983,-0.027554,0,-0.00061577,0,0,0,0.033772,-0.00066659,0.0099316,-0.19703,0.014346,0.030551,8.9254e-07,0.83,0.43,0
0.04008,0.0009637,0.033759,-0.00068888,0.0099211,-0.00012547,0,0,0.061979,-0.027586,0,-0.00065244,0,0,0,0.03376,-0.00068934,0.0099211,-0.2087,0.01433,0.030558,8.9218e-07,0.84,0.43,0
0.0407,0.00097804,0.033748,-0.00071106,0.0099112,-0.00013003,0,0,0.061977,-0.027618,0,-0.00067616,0,0,0,0.033749,-0.00071155,0.0099112,-0.21621,0.014316,0.030566,8.9194e-07,0.85,0.43,0
0.04132,0.00099109,0.033739,-0.00073254,0.009902,-0.00013222,0,0,0.061977,-0.02765,0,-0.00068756,0,0,0,0.03374,-0.00073305,0.009902,-0.21978,0.014303,0.030576,8.9179e-07,0.86,0.43,0
0.04194,0.0010029,0.033731,-0.00075317,0.0098935,-0.00013218,0,0,0.061979,-0.027681,0,-0.00068735,0,0,0,0.033732,-0.00075368,0.0098935,-0.21963,0.014291,0.030585,8.9171e-07,0.87,0.43,0
0.042559,0.0010136,0.033725,-0.00077278,0.0098855,-0.00013006,0,0,0.061981,-0.027712,0,-0.00067629,0,0,0,0.033725,-0.00077327,0.0098855,-0.21602,0.014279,0.030595,8.9169e-07,0.88,0.43,0
0.043179,0.0010232,0.033719,-0.00079125,0.0098782,-0.000126,0,0,0.061985,-0.027741,0,-0.00065518,0,0,0,0.033719,-0.00079171,0.0098782,-0.2092,0.014269,0.030604,8.917e-07,0.89,0.43,0
0.043799,0.0010317,0.033714,-0.00080846,0.0098715,-0.00012016,0,0,0.061989,-0.027768,0,-0.00062484,0,0,0,0.033714,-0.00080888,0.0098715,-0.19944,0.014259,0.030613,8.9175e-07,0.9,0.43,0
0.044419,0.0010393,0.033709,-0.00082431,0.0098655,-0.00011271,0,0,0.061994,-0.027793,0,-0.00058612,0,0,0,0.03371,-0.00082468,0.0098655,-0.18702,0.01425,0.030622,8.9182e-07,0.91,0.43,0
0.045039,0.0010459,0.033705,-0.00083871,0.00986,-0.00010382,0,0,0.061998,-0.027817,0,-0.00053985,0,0,0,0.033706,-0.00083902,0.00986,-0.1722,0.014242,0.03063,8.919e-07,0.92,0.43,0
0.045659,0.0010517,0.033702,-0.00085158,0.0098552,-9.3634e-05,0,0,0.062003,-0.027838,0,-0.0004869,0,0,0,0.033703,-0.00085183,0.0098552,-0.15527,0.014235,0.030638,8.9199e-07,0.93,0.43,0
0.046279,0.0010566,0.0337,-0.00086285,0.0098511,-8.2329e-05,0,0,0.062007,-0.027856,0,-0.00042811,0,0,0,0.0337,-0.00086305,0.0098511,-0.13649,0.014229,0.030644,8.9208e-07,0.94,0.43,0
0.046899,0.0010607,0.033698,-0.00087248,0.0098475,-7.0064e-05,0,0,0.06201,-0.027872,0,-0.00036434,0,0,0,0.033698,-0.00087262,0.0098475,-0.11613,0.014224,0.03065,8.9215e-07,0.95,0.43,0
0.047519,0.001064,0.033696,-0.00088041,0.0098447,-5.7004e-05,0,0,0.062013,-0.027885,0,-0.00029642,0,0,0,0.033696,-0.00088051,0.0098447,-0.094465,0.01422,0.030655,8.9222e-07,0.96,0.43,0
0.048139,0.0010666,0.033695,-0.00088662,0.0098424,-4.3307e-05,0,0,0.062016,-0.027895,0,-0.0002252,0,0,0,0.033695,-0.00088667,0.0098424,-0.071757,0.014217,0.030659,8.9228e-07,0.97,0.43,0
0.04876,0.0010684,0.033694,-0.00089107,0.0098408,-2.9135e-05,0,0,0.062018,-0.027903,0,-0.0001515,0,0,0,0.033694,-0.0008911,0.0098408,-0.04827,0.014214,0.030661,8.9232e-07,0.98,0.43,0
0.04938,0.0010694,0.033693,-0.00089375,0.0098398,-1.2925e-05,0,0,0.062019,-0.027907,0,-6.7209e-05,0,0,0,0.033693,-0.00089376,0.0098398,-0.021412,0.014213,0.030663,8.9235e-07,0.99,0.43,0
0.04969,0.0010698,0.033693,-0.00089464,0.0098395,-3.8993e-06,0,0,0.062019,-0.027909,0,-2.0277e-05,0,0,0,0.033693,-0.00089464,0.0098395,-0.0064597,0.014213,0.030664,8.9236e-07,1,0.43,0
0.00025338,1.3423e-05,0.034098,0.014473,0.014571,0.00052037,0,0,0.050769,-0.00025492,0,0.0027059,0,0,0,0.034112,0.014459,0.014571,1.5163,0.021047,0.019597,3.8656e-07,0,0.44,0
0.00050769,2.9743e-05,0.034114,0.014328,0.014533,0.00054795,0,0,0.050912,-0.00053196,0,0.0028494,0,0,0,0.03413,0.014313,0.014533,1.5823,0.020992,0.019708,3.9308e-07,0.01,0.44,0
0.0010182,6.7969e-05,0.034173,0.014028,0.01446,0.00062143,0,0,0.051253,-0.0011237,0,0.0032314,0,0,0,0.034193,0.014009,0.01446,1.7613,0.020887,0.019962,4.0799e-07,0.02,0.44,0
0.0015328,0.00011704,0.034254,0.013701,0.014387,0.00070434,0,0,0.051656,-0.0017824,0,0.0036626,0,0,0,0.034278,0.013677,0.014387,1.9572,0.020781,0.020257,4.2527e-07,0.03,0.44,0
0.0020513,0.00017647,0.034323,0.013337,0.014298,0.00077241,0,0,0.052066,-0.0024988,0,0.0040165,0,0,0,0.034352,0.013309,0.014298,2.1025,0.020653,0.020567,4.4349e-07,0.04,0.44,0
0.0025741,0.00024605,0.034384,0.012932,0.014195,0.00083152,0,0,0.052492,-0.0032832,0,0.0043239,0,0,0,0.034417,0.0129,0.014195,2.2144,0.020504,0.0209,4.6295e-07,0.05,0.44,0
0.0031012,0.00032578,0.034459,0.012465,0.014077,0.00088142,0,0,0.052993,-0.0041912,0,0.0045834,0,0,0,0.034495,0.01243,0.014077,2.2896,0.020334,0.02129,4.8576e-07,0.06,0.44,0
0.0036339,0.0004149,0.034571,0.011878,0.013935,0.00089883,0,0,0.053655,-0.0053475,0,0.0046739,0,0,0,0.034607,0.011842,0.013935,2.2642,0.020128,0.021796,5.1548e-07,0.07,0.44,0
0.0041743,0.00051059,0.034773,0.011193,0.01379,0.00082837,0,0,0.054556,-0.006752,0,0.0043075,0,0,0,0.034803,0.011162,0.01379,2.0127,0.019918,0.022445,5.5464e-07,0.08,0.44,0
0.004725,0.00060808,0.035699,0.010709,0.013922,0.00063083,0,0,0.053268,-0.0076688,0,0.0031763,0,0,0,0.035725,0.010683,0.013922,1.4808,0.02011,0.023594,6.618e-07,0.09,0.44,0
0.0052467,0.00069079,0.036581,0.010767,0.014205,0.000876,0,0,0.046556,-0.0069652,0,0.0031868,0,0,0,0.036663,0.010685,0.014205,2.0325,0.020518,0.024416,7.6927e-07,0.1,0.44,0
0.005669,0.00073319,0.036161,0.011267,0.014228,0.0018892,0,0,0.037423,-0.0050932,0,0.0056308,0,0,0,0.036377,0.011051,0.014228,4.3904,0.020552,0.023901,7.3239e-07,0.11,0.44,0
0.0059978,0.00073221,0.036085,0.011698,0.014335,0.0026756,0,0,0.031493,-0.0038631,0,0.0074212,0,0,0,0.036394,0.011389,0.014335,6.1372,0.020706,0.023671,6.7992e-07,0.12,0.44,0
0.0062937,0.0007073,0.036826,0.011522,0.014505,0.0027202,0,0,0.029603,-0.0039493,0,0.0071822,0,0,0,0.037121,0.011227,0.014505,6.0633,0.020951,0.024422,7.1078e-07,0.13,0.44,0
0.0065878,0.00067393,0.037046,0.010668,0.014314,0.0025171,0,0,0.029551,-0.0047403,0,0.0065446,0,0,0,0.037287,0.010427,0.014314,5.4155,0.020676,0.025146,7.5072e-07,0.14,0.44,0
0.0068847,0.0006388,0.036871,0.0096504,0.013956,0.0023878,0,0,0.029789,-0.0055976,0,0.0062082,0,0,0,0.037079,0.0094416,0.013956,4.9807,0.020159,0.025682,7.7971e-07,0.15,0.44,0
0.0071836,0.00060487,0.036709,0.0088553,0.013669,0.0023346,0,0,0.029952,-0.0062583,0,0.00607,0,0,0,0.036904,0.0086601,0.013669,4.7616,0.019745,0.026103,8.0115e-07,0.16,0.44,0
0.0074837,0.00057303,0.036561,0.0082555,0.013445,0.002274,0,0,0.030051,-0.0067462,0,0.0059123,0,0,0,0.036743,0.0080732,0.013445,4.5676,0.01942,0.026398,8.1442e-07,0.17,0.44,0
0.0077846,0.00054269,0.036422,0.0077464,0.01325,0.0021753,0,0,0.030123,-0.0071553,0,0.0056558,0,0,0,0.036587,0.0075815,0.01325,4.3172,0.01914,0.026628,8.2345e-07,0.18,0.44,0
0.0080862,0.00051279,0.036308,0.0072712,0.013074,0.0020441,0,0,0.030205,-0.0075435,0,0.0053148,0,0,0,0.036452,0.0071273,0.013074,4.0106,0.018885,0.026851,8.3221e-07,0.19,0.44,0
0.0083887,0.00048245,0.036224,0.0068075,0.01291,0.0018954,0,0,0.030309,-0.0079328,0,0.004928,0,0,0,0.036347,0.0066852,0.01291,3.6746,0.018647,0.027092,8.4232e-07,0.2,0.44,0
0.0086924,0.00045108,0.036165,0.0063459,0.012753,0.00174,0,0,0.030435,-0.0083295,0,0.004524,0,0,0,0.036267,0.0062441,0.012753,3.3312,0.018421,0.027355,8.5403e-07,0.21,0.44,0
0.0089974,0.00041828,0.036123,0.0058829,0.012602,0.0015843,0,0,0.030577,-0.0087344,0,0.0041193,0,0,0,0.036206,0.0057996,0.012602,2.9936,0.018202,0.027641,8.6714e-07,0.22,0.44,0
0.0093039,0.00038377,0.036094,0.0054171,0.012453,0.0014316,0,0,0.030733,-0.009147,0,0.0037223,0,0,0,0.036161,0.00535,0.012453,2.6687,0.017988,0.027945,8.8137e-07,0.23,0.44,0
0.0096121,0.00034741,0.036074,0.004948,0.012307,0.0012836,0,0,0.030898,-0.0095663,0,0.0033373,0,0,0,0.036128,0.0048947,0.012307,2.3597,0.017776,0.028266,8.9647e-07,0.24,0.44,0
0.0099219,0.0003091,0.036062,0.0044755,0.012161,0.0011408,0,0,0.031071,-0.0099915,0,0.0029662,0,0,0,0.036104,0.004434,0.012161,2.0679,0.017566,0.0286,9.1228e-07,0.25,0.44,0
0.010233,0.00026879,0.036057,0.0039999,0.012017,0.0010038,0,0,0.031252,-0.010422,0,0.0026098,0,0,0,0.036088,0.0039681,0.012017,1.7937,0.017358,0.028948,9.2868e-07,0.26,0.44,0
0.010547,0.00022647,0.036057,0.0035217,0.011874,0.00087242,0,0,0.031438,-0.010857,0,0.0022683,0,0,0,0.036081,0.003498,0.011874,1.5367,0.017151,0.029307,9.4558e-07,0.27,0.44,0
0.010862,0.00018216,0.036063,0.0030416,0.011731,0.00074669,0,0,0.031631,-0.011297,0,0.0019414,0,0,0,0.03608,0.0030245,0.011731,1.2964,0.016945,0.029676,9.6291e-07,0.28,0.44,0
0.01118,0.00013591,0.036075,0.0025609,0.011591,0.00062631,0,0,0.031829,-0.011739,0,0.0016284,0,0,0,0.036087,0.0025489,0.011591,1.0718,0.016742,0.030055,9.806e-07,0.29,0.44,0
0.011499,8.7775e-05,0.036092,0.0020811,0.011452,0.00051091,0,0,0.032032,-0.012182,0,0.0013284,0,0,0,0.0361,0.0020732,0.011452,0.86183,0.016542,0.030441,9.9856e-07,0.3,0.44,0
0.01182,3.7818e-05,0.036115,0.0016043,0.011316,0.00040001,0,0,0.032239,-0.012625,0,0.00104,0,0,0,0.036119,0.0015994,0.011316,0.66526,0.016345,0.030833,1.0167e-06,0.31,0.44,0
0.012144,-1.3874e-05,0.036142,0.0011332,0.011183,0.00029308,0,0,0.032447,-0.013064,0,0.00076201,0,0,0,0.036145,0.0011306,0.011183,0.48075,0.016153,0.031227,1.0349e-06,0.32,0.44,0
0.012469,-6.7208e-05,0.036174,0.00067128,0.011054,0.00018967,0,0,0.032657,-0.013497,0,0.00049314,0,0,0,0.036175,0.0006701,0.011054,0.3071,0.015966,0.031619,1.0529e-06,0.33,0.44,0
0.012797,-0.00012207,0.036209,0.0002227,0.01093,8.9564e-05,0,0,0.032863,-0.013919,0,0.00023287,0,0,0,0.03621,0.00022232,0.01093,0.1435,0.015787,0.032007,1.0706e-06,0.34,0.44,0
0.013126,-0.00017834,0.036246,-0.00020757,0.010811,-6.9788e-06,0,0,0.033064,-0.014325,0,-1.8145e-05,0,0,0,0.036246,-0.00020772,0.010811,-0.010191,0.015616,0.032382,1.0875e-06,0.35,0.44,0
0.013458,-0.00023583,0.036281,-0.00061387,0.0107,-9.8945e-05,0,0,0.033255,-0.014708,0,-0.00025726,0,0,0,0.036282,-0.00061426,0.0107,-0.15301,0.015456,0.03274,1.1035e-06,0.36,0.44,0
0.013791,-0.00029435,0.036314,-0.00099016,0.010597,-0.00018429,0,0,0.033432,-0.015063,0,-0.00047915,0,0,0,0.036315,-0.00099117,0.010597,-0.28253,0.015307,0.033071,1.1181e-06,0.37,0.44,0
0.014127,-0.0003536,0.036341,-0.0013306,0.010503,-0.00025975,0,0,0.033589,-0.015384,0,-0.00067535,0,0,0,0.036343,-0.0013324,0.010503,-0.39467,0.015171,0.033371,1.1309e-06,0.38,0.44,0
0.014463,-0.00041319,0.036361,-0.0016303,0.010419,-0.0003209,0,0,0.033724,-0.015664,0,-0.00083434,0,0,0,0.036363,-0.001633,0.010419,-0.48369,0.01505,0.033631,1.1416e-06,0.39,0.44,0
0.014801,-0.00047266,0.036372,-0.0018864,0.010346,-0.00036244,0,0,0.033834,-0.015902,0,-0.00094234,0,0,0,0.036375,-0.0018898,0.010346,-0.54262,0.014944,0.033849,1.1502e-06,0.4,0.44,0
0.01514,-0.00053136,0.036375,-0.0020986,0.010283,-0.00037863,0,0,0.03392,-0.016096,0,-0.00098444,0,0,0,0.036379,-0.0021023,0.010283,-0.56379,0.014853,0.034023,1.1565e-06,0.41,0.44,0
0.01548,-0.00058857,0.036373,-0.0022695,0.010231,-0.00036357,0,0,0.033985,-0.016251,0,-0.00094528,0,0,0,0.036377,-0.0022729,0.010231,-0.53908,0.014778,0.03416,1.1612e-06,0.42,0.44,0
0.01582,-0.00064338,0.036376,-0.0024053,0.010191,-0.00031126,0,0,0.03404,-0.016376,0,-0.00080927,0,0,0,0.036379,-0.0024079,0.010191,-0.45999,0.014721,0.03427,1.1651e-06,0.43,0.44,0
0.01616,-0.00069478,0.036402,-0.0025184,0.010165,-0.00021795,0,0,0.034108,-0.016488,0,-0.00056666,0,0,0,0.036403,-0.0025198,0.010165,-0.3212,0.014683,0.034383,1.1705e-06,0.44,0.44,0
0.016502,-0.00074169,0.036468,-0.0026344,0.01015,-9.0767e-05,0,0,0.034213,-0.01662,0,-0.00023599,0,0,0,0.036469,-0.002635,0.01015,-0.13381,0.014661,0.034534,1.1799e-06,0.45,0.44,0
0.016845,-0.00078326,0.036539,-0.0027699,0.010131,5.9826e-05,0,0,0.034331,-0.016771,0,0.00015555,0,0,0,0.03654,-0.0027706,0.010131,0.085867,0.014633,0.034708,1.1906e-06,0.46,0.44,0
0.017188,-0.00081777,0.036602,-0.0027379,0.010159,0.00032969,0,0,0.034376,-0.016766,0,0.00085718,0,0,0,0.036607,-0.0027433,0.010159,0.48039,0.014674,0.034746,1.1964e-06,0.47,0.44,0
0.017532,-0.00083759,0.036647,-0.0016762,0.010491,0.00079177,0,0,0.037956,-0.016938,0,0.0026342,0,0,0,0.036672,-0.0017013,0.010491,1.2344,0.015154,0.033983,1.1635e-06,0.48,0.44,0
0.017948,-0.00082182,0.036686,0.00086833,0.011266,0.0012413,0,0,0.04894,-0.018439,0,0.0053646,0,0,0,0.036739,0.00081508,0.011266,2.0743,0.016273,0.032051,1.08e-06,0.49,0.44,0
0.018511,-0.00076333,0.036783,0.0029597,0.011923,0.0014033,0,0,0.060353,-0.021064,0,0.0070152,0,0,0,0.036846,0.0028973,0.011923,2.4103,0.017222,0.030477,1.0249e-06,0.5,0.44,0
0.019155,-0.0006888,0.036831,0.0030079,0.011952,0.0012646,0,0,0.064687,-0.023254,0,0.006576,0,0,0,0.03688,0.0029592,0.011952,2.1458,0.017264,0.030439,1.0336e-06,0.51,0.44,0
0.019805,-0.00061902,0.036734,0.0022178,0.011686,0.0010405,0,0,0.065126,-0.024616,0,0.0054108,0,0,0,0.036767,0.0021853,0.011686,1.7294,0.016879,0.030946,1.0522e-06,0.52,0.44,0
0.020457,-0.00055489,0.036569,0.001626,0.011459,0.00087409,0,0,0.065288,-0.025565,0,0.0045453,0,0,0,0.036592,0.0016033,0.011459,1.4341,0.016551,0.03125,1.0577e-06,0.53,0.44,0
0.02111,-0.00049486,0.036391,0.0011673,0.011267,0.00076644,0,0,0.065321,-0.02626,0,0.0039855,0,0,0,0.036408,0.0011501,0.011267,1.2469,0.016275,0.031445,1.0572e-06,0.54,0.44,0
0.021764,-0.00043752,0.036211,0.0008083,0.011106,0.00070039,0,0,0.065273,-0.026773,0,0.003642,0,0,0,0.036225,0.00079394,0.011106,1.1334,0.016041,0.031565,1.0532e-06,0.55,0.44,0
0.022416,-0.00038183,0.036031,0.00052708,0.010968,0.00066146,0,0,0.065166,-0.027145,0,0.0034396,0,0,0,0.036044,0.0005143,0.010968,1.0671,0.015842,0.031627,1.0465e-06,0.56,0.44,0
0.023067,-0.0003271,0.035854,0.00030794,0.010849,0.00063864,0,0,0.065015,-0.027406,0,0.0033209,0,0,0,0.035866,0.00029603,0.010849,1.029,0.01567,0.031642,1.038e-06,0.57,0.44,0
0.023716,-0.00027292,0.035681,0.00013861,0.010746,0.00062394,0,0,0.064832,-0.027579,0,0.0032445,0,0,0,0.035693,0.00012725,0.010746,1.0054,0.015522,0.031623,1.0283e-06,0.58,0.44,0
0.024363,-0.00021911,0.035513,9.1529e-06,0.010657,0.00061186,0,0,0.064627,-0.027684,0,0.0031817,0,0,0,0.035524,-1.7736e-06,0.010657,0.98704,0.015393,0.031576,1.0178e-06,0.59,0.44,0
0.025009,-0.00016563,0.035352,-8.8673e-05,0.010579,0.00059878,0,0,0.064411,-0.027736,0,0.0031136,0,0,0,0.035363,-9.914e-05,0.010579,0.96767,0.015281,0.03151,1.0069e-06,0.6,0.44,0
0.025652,-0.00011258,0.035199,-0.00016171,0.010511,0.00058253,0,0,0.064189,-0.02775,0,0.0030291,0,0,0,0.035209,-0.00017162,0.010511,0.94357,0.015183,0.031432,9.9604e-07,0.61,0.44,0
0.026292,-6.0109e-05,0.035055,-0.00021563,0.010452,0.00056199,0,0,0.063968,-0.027735,0,0.0029223,0,0,0,0.035064,-0.00022487,0.010452,0.91266,0.015097,0.031345,9.8538e-07,0.62,0.44,0
0.026931,-8.4038e-06,0.03492,-0.00025515,0.010399,0.00053677,0,0,0.063753,-0.027702,0,0.0027912,0,0,0,0.034928,-0.00026359,0.010399,0.87411,0.015021,0.031256,9.7512e-07,0.63,0.44,0
0.027568,4.2324e-05,0.034794,-0.00028412,0.010353,0.00050701,0,0,0.063547,-0.027657,0,0.0026365,0,0,0,0.034802,-0.00029167,0.010353,0.82794,0.014954,0.031166,9.6543e-07,0.64,0.44,0
0.028202,9.1867e-05,0.034679,-0.00030569,0.010312,0.00047316,0,0,0.063354,-0.027606,0,0.0024605,0,0,0,0.034685,-0.00031228,0.010312,0.77476,0.014895,0.031079,9.5638e-07,0.65,0.44,0
0.028835,0.00014003,0.034573,-0.00032236,0.010275,0.00043589,0,0,0.063174,-0.027554,0,0.0022666,0,0,0,0.034579,-0.00032797,0.010275,0.71558,0.014842,0.030996,9.4804e-07,0.66,0.44,0
0.029465,0.00018664,0.034477,-0.00033612,0.010242,0.00039597,0,0,0.06301,-0.027504,0,0.002059,0,0,0,0.034481,-0.00034077,0.010242,0.6516,0.014794,0.03092,9.4045e-07,0.67,0.44,0
0.030095,0.00023155,0.034389,-0.0003485,0.010212,0.00035421,0,0,0.062861,-0.027458,0,0.0018419,0,0,0,0.034393,-0.00035224,0.010212,0.58415,0.014751,0.030851,9.3361e-07,0.68,0.44,0
0.030723,0.00027463,0.034311,-0.00036065,0.010185,0.00031143,0,0,0.062727,-0.027419,0,0.0016194,0,0,0,0.034314,-0.00036356,0.010185,0.51459,0.014712,0.03079,9.2751e-07,0.69,0.44,0
0.031349,0.00031579,0.034241,-0.00037339,0.01016,0.00026839,0,0,0.06261,-0.027387,0,0.0013956,0,0,0,0.034243,-0.00037557,0.01016,0.44422,0.014676,0.030736,9.2213e-07,0.7,0.44,0
0.031975,0.00035496,0.034178,-0.00038729,0.010137,0.00022578,0,0,0.062507,-0.027364,0,0.0011741,0,0,0,0.03418,-0.00038884,0.010137,0.37423,0.014643,0.030691,9.1743e-07,0.71,0.44,0
0.0326,0.0003921,0.034123,-0.00040269,0.010116,0.00018424,0,0,0.062418,-0.027349,0,0.00095807,0,0,0,0.034124,-0.00040374,0.010116,0.30574,0.014612,0.030653,9.1337e-07,0.72,0.44,0
0.033223,0.00042718,0.034074,-0.00041976,0.010096,0.0001443,0,0,0.062343,-0.027342,0,0.00075037,0,0,0,0.034075,-0.00042042,0.010096,0.23968,0.014584,0.030623,9.0989e-07,0.73,0.44,0
0.033846,0.00046021,0.034031,-0.00043855,0.010078,0.0001064,0,0,0.062279,-0.027343,0,0.00055331,0,0,0,0.034032,-0.00043892,0.010078,0.17686,0.014557,0.030599,9.0696e-07,0.74,0.44,0
0.034469,0.00049121,0.033994,-0.00045898,0.01006,7.0916e-05,0,0,0.062227,-0.027351,0,0.00036876,0,0,0,0.033994,-0.00045916,0.01006,0.11793,0.014532,0.030582,9.0452e-07,0.75,0.44,0
0.035091,0.00052021,0.033961,-0.00048091,0.010044,3.8116e-05,0,0,0.062184,-0.027365,0,0.0001982,0,0,0,0.033961,-0.00048098,0.010044,0.063402,0.014508,0.03057,9.0251e-07,0.76,0.44,0
0.035713,0.00054726,0.033933,-0.00050415,0.010029,8.2087e-06,0,0,0.062151,-0.027385,0,4.2685e-05,0,0,0,0.033933,-0.00050417,0.010029,0.013652,0.014486,0.030563,9.0088e-07,0.77,0.44,0
0.036334,0.00057242,0.033908,-0.00052846,0.010014,-1.8668e-05,0,0,0.062125,-0.02741,0,-9.7076e-05,0,0,0,0.033908,-0.00052849,0.010014,-0.031066,0.014465,0.030561,8.9959e-07,0.78,0.44,0
0.036955,0.00059575,0.033887,-0.00055359,0.01,-4.2439e-05,0,0,0.062106,-0.027439,0,-0.00022068,0,0,0,0.033887,-0.00055365,0.01,-0.070609,0.014444,0.030562,8.986e-07,0.79,0.44,0
0.037576,0.00061733,0.033869,-0.00057927,0.0099868,-6.308e-05,0,0,0.062093,-0.027472,0,-0.00032802,0,0,0,0.033869,-0.0005794,0.0099868,-0.10493,0.014425,0.030567,8.9785e-07,0.8,0.44,0
0.038197,0.00063723,0.033853,-0.00060525,0.0099743,-8.0613e-05,0,0,0.062084,-0.027507,0,-0.00041919,0,0,0,0.033853,-0.00060544,0.0099743,-0.13405,0.014407,0.030574,8.9731e-07,0.81,0.44,0
0.038818,0.00065553,0.033839,-0.00063126,0.0099624,-9.5095e-05,0,0,0.06208,-0.027544,0,-0.0004945,0,0,0,0.03384,-0.00063153,0.0099624,-0.15807,0.01439,0.030583,8.9695e-07,0.82,0.44,0
0.039439,0.00067231,0.033828,-0.00065706,0.0099512,-0.00010662,0,0,0.062079,-0.027581,0,-0.00055442,0,0,0,0.033828,-0.00065739,0.0099512,-0.17715,0.014374,0.030593,8.9673e-07,0.83,0.44,0
0.040059,0.00068766,0.033818,-0.00068243,0.0099406,-0.0001153,0,0,0.062081,-0.02762,0,-0.00059956,0,0,0,0.033818,-0.00068281,0.0099406,-0.19149,0.014359,0.030605,8.9663e-07,0.84,0.44,0
0.04068,0.00070165,0.033809,-0.00070714,0.0099306,-0.00012127,0,0,0.062084,-0.027658,0,-0.00063061,0,0,0,0.03381,-0.00070757,0.0099306,-0.20131,0.014344,0.030617,8.9662e-07,0.85,0.44,0
0.041301,0.00071435,0.033802,-0.00073102,0.0099213,-0.00012468,0,0,0.06209,-0.027696,0,-0.00064836,0,0,0,0.033802,-0.00073147,0.0099213,-0.20688,0.014331,0.03063,8.9669e-07,0.86,0.44,0
0.041922,0.00072584,0.033796,-0.00075388,0.0099126,-0.0001257,0,0,0.062096,-0.027733,0,-0.00065364,0,0,0,0.033796,-0.00075433,0.0099126,-0.20846,0.014318,0.030643,8.968e-07,0.87,0.44,0
0.042543,0.00073619,0.03379,-0.00077556,0.0099045,-0.00012449,0,0,0.062104,-0.027768,0,-0.00064734,0,0,0,0.033791,-0.00077601,0.0099045,-0.20635,0.014306,0.030655,8.9696e-07,0.88,0.44,0
0.043164,0.00074546,0.033786,-0.00079594,0.009897,-0.00012122,0,0,0.062111,-0.027802,0,-0.00063036,0,0,0,0.033786,-0.00079637,0.009897,-0.20085,0.014296,0.030668,8.9714e-07,0.89,0.44,0
0.043785,0.00075372,0.033782,-0.00081489,0.0098902,-0.00011608,0,0,0.062119,-0.027833,0,-0.00060362,0,0,0,0.033782,-0.00081528,0.0098902,-0.19225,0.014286,0.030679,8.9733e-07,0.9,0.44,0
0.044406,0.00076101,0.033779,-0.00083231,0.009884,-0.00010924,0,0,0.062127,-0.027862,0,-0.00056805,0,0,0,0.033779,-0.00083265,0.009884,-0.18084,0.014277,0.03069,8.9752e-07,0.91,0.44,0
0.045028,0.00076741,0.033776,-0.0008481,0.0098784,-0.00010088,0,0,0.062134,-0.027889,0,-0.00052456,0,0,0,0.033776,-0.0008484,0.0098784,-0.16694,0.014269,0.030701,8.9772e-07,0.92,0.44,0
0.045649,0.00077294,0.033774,-0.0008622,0.0098735,-9.1172e-05,0,0,0.062141,-0.027913,0,-0.00047409,0,0,0,0.033774,-0.00086244,0.0098735,-0.15082,0.014262,0.03071,8.979e-07,0.93,0.44,0
0.04627,0.00077764,0.033772,-0.00087453,0.0098692,-8.0296e-05,0,0,0.062147,-0.027934,0,-0.00041754,0,0,0,0.033772,-0.00087472,0.0098692,-0.13279,0.014255,0.030718,8.9806e-07,0.94,0.44,0
0.046892,0.00078157,0.03377,-0.00088505,0.0098656,-6.8423e-05,0,0,0.062152,-0.027952,0,-0.0003558,0,0,0,0.03377,-0.00088518,0.0098656,-0.11313,0.01425,0.030725,8.9821e-07,0.95,0.44,0
0.047514,0.00078474,0.033769,-0.00089371,0.0098626,-5.5724e-05,0,0,0.062157,-0.027966,0,-0.00028976,0,0,0,0.033769,-0.0008938,0.0098626,-0.092113,0.014246,0.030731,8.9833e-07,0.96,0.44,0
0.048135,0.00078718,0.033768,-0.00090048,0.0098603,-4.2366e-05,0,0,0.06216,-0.027978,0,-0.0002203,0,0,0,0.033768,-0.00090053,0.0098603,-0.070021,0.014243,0.030735,8.9843e-07,0.97,0.44,0
0.048757,0.00078891,0.033767,-0.00090533,0.0098586,-2.8517e-05,0,0,0.062163,-0.027986,0,-0.00014829,0,0,0,0.033767,-0.00090535,0.0098586,-0.047125,0.01424,0.030738,8.985e-07,0.98,0.44,0
0.049378,0.00078994,0.033767,-0.00090825,0.0098576,-1.2694e-05,0,0,0.062164,-0.027991,0,-6.6009e-05,0,0,0,0.033767,-0.00090826,0.0098576,-0.020976,0.014239,0.03074,8.9855e-07,0.99,0.44,0
0.049689,0.00079028,0.033767,-0.00090922,0.0098573,-3.8985e-06,0,0,0.062165,-0.027993,0,-2.0272e-05,0,0,0,0.033767,-0.00090922,0.0098573,-0.0064417,0.014238,0.030741,8.9856e-07,1,0.44,0
0.00025086,1.106e-05,0.033761,0.014345,0.014432,0.00043154,0,0,0.050256,-0.00022592,0,0.002244,0,0,0,0.03377,0.014335,0.014432,1.2714,0.020846,0.019387,3.7429e-07,0,0.45,0
0.00050256,2.477e-05,0.033775,0.014213,0.014396,0.00046062,0,0,0.050385,-0.00047757,0,0.0023952,0,0,0,0.033786,0.014202,0.014396,1.3457,0.020795,0.019488,3.8008e-07,0.01,0.45,0
0.0010077,5.7362e-05,0.033827,0.013934,0.014328,0.00053846,0,0,0.050696,-0.0010246,0,0.0028,0,0,0,0.033841,0.013919,0.014328,1.5459,0.020696,0.019721,3.9345e-07,0.02,0.45,0
0.0015165,0.00010007,0.033897,0.013622,0.014255,0.00063024,0,0,0.051067,-0.0016483,0,0.0032772,0,0,0,0.033916,0.013602,0.014255,1.7756,0.020591,0.019997,4.0926e-07,0.03,0.45,0
0.002029,0.00015251,0.033958,0.01327,0.014168,0.0007114,0,0,0.051454,-0.0023368,0,0.0036993,0,0,0,0.033983,0.013245,0.014168,1.9644,0.020466,0.020293,4.2627e-07,0.04,0.45,0
0.0025456,0.00021434,0.034014,0.012874,0.014066,0.00078059,0,0,0.051864,-0.0031006,0,0.0040591,0,0,0,0.034043,0.012845,0.014066,2.1097,0.020318,0.020615,4.4473e-07,0.05,0.45,0
0.0030663,0.00028496,0.034069,0.012416,0.013945,0.00082575,0,0,0.052321,-0.0039773,0,0.0042939,0,0,0,0.0341,0.012384,0.013945,2.1798,0.020143,0.02098,4.6554e-07,0.06,0.45,0
0.003592,0.000363,0.034122,0.011879,0.0138,0.00081429,0,0,0.052837,-0.0049961,0,0.0042343,0,0,0,0.034152,0.011849,0.0138,2.0954,0.019934,0.021396,4.8921e-07,0.07,0.45,0
0.0041231,0.00044583,0.03415,0.011284,0.01363,0.00072106,0,0,0.053352,-0.0061011,0,0.0037495,0,0,0,0.034174,0.01126,0.01363,1.8077,0.019688,0.021827,5.136e-07,0.08,0.45,0
0.004659,0.00053233,0.034526,0.010738,0.013579,0.00047857,0,0,0.053194,-0.0071265,0,0.0024845,0,0,0,0.03454,0.010724,0.013579,1.178,0.019614,0.022527,5.728e-07,0.09,0.45,0
0.0051905,0.00061652,0.035457,0.010578,0.013811,0.00038545,0,0,0.050393,-0.0073974,0,0.0014707,0,0,0,0.035483,0.010552,0.013811,0.86056,0.019948,0.023475,6.7527e-07,0.1,0.45,0
0.0056792,0.00067584,0.035755,0.010879,0.01399,0.00099789,0,0,0.043753,-0.0062713,0,0.0029316,0,0,0,0.03586,0.010774,0.01399,2.2221,0.020208,0.023644,7.1469e-07,0.11,0.45,0
0.0060794,0.00069103,0.035231,0.01121,0.013932,0.0020145,0,0,0.035938,-0.0046354,0,0.0058024,0,0,0,0.03546,0.010981,0.013932,4.6508,0.020124,0.023145,6.6977e-07,0.12,0.45,0
0.0064011,0.00066863,0.03546,0.011225,0.014005,0.002627,0,0,0.03093,-0.003972,0,0.0072398,0,0,0,0.03576,0.010924,0.014005,6.0333,0.02023,0.023449,6.5968e-07,0.13,0.45,0
0.0066943,0.00062784,0.036248,0.010659,0.014072,0.0026787,0,0,0.029387,-0.0044957,0,0.0070686,0,0,0,0.036531,0.010377,0.014072,5.9158,0.020327,0.024519,7.083e-07,0.14,0.45,0
0.0069871,0.00058364,0.036462,0.0097022,0.013849,0.0025666,0,0,0.029397,-0.0053911,0,0.0066731,0,0,0,0.036708,0.0094564,0.013849,5.4401,0.020004,0.025344,7.52e-07,0.15,0.45,0
0.0072822,0.00054307,0.036302,0.008915,0.013565,0.0025009,0,0,0.029558,-0.0060451,0,0.0065024,0,0,0,0.036529,0.0086874,0.013565,5.1807,0.019594,0.025753,7.7228e-07,0.16,0.45,0
0.0075782,0.00050661,0.036152,0.0083697,0.013356,0.0024128,0,0,0.029634,-0.0064827,0,0.0062732,0,0,0,0.036361,0.0081607,0.013356,4.9321,0.019293,0.025995,7.8224e-07,0.17,0.45,0
0.0078749,0.00047234,0.036039,0.0078911,0.013179,0.0022739,0,0,0.029718,-0.0068742,0,0.0059121,0,0,0,0.036222,0.0077077,0.013179,4.5935,0.019036,0.026211,7.9091e-07,0.18,0.45,0
0.0081726,0.0004386,0.035972,0.0074292,0.01302,0.0021086,0,0,0.029838,-0.0072687,0,0.0054823,0,0,0,0.036128,0.0072734,0.01302,4.2061,0.018807,0.026454,8.0174e-07,0.19,0.45,0
0.0084716,0.00040434,0.035939,0.0069689,0.012872,0.0019361,0,0,0.029987,-0.0076745,0,0.0050339,0,0,0,0.036068,0.0068393,0.012872,3.81,0.018593,0.026729,8.1488e-07,0.2,0.45,0
0.0087723,0.00036894,0.035925,0.0065059,0.012729,0.0017655,0,0,0.030154,-0.0080902,0,0.0045903,0,0,0,0.036031,0.0063997,0.012729,3.4251,0.018387,0.027029,8.2968e-07,0.21,0.45,0
0.0090747,0.00033201,0.035921,0.0060391,0.012588,0.0016,0,0,0.030333,-0.0085135,0,0.0041601,0,0,0,0.036007,0.0059531,0.012588,3.059,0.018183,0.027347,8.4559e-07,0.22,0.45,0
0.0093789,0.0002933,0.035923,0.0055684,0.012447,0.0014407,0,0,0.030518,-0.0089425,0,0.0037459,0,0,0,0.035991,0.0054997,0.012447,2.7139,0.017979,0.02768,8.6222e-07,0.23,0.45,0
0.0096851,0.00025268,0.035928,0.005094,0.012307,0.0012877,0,0,0.030708,-0.0093763,0,0.0033481,0,0,0,0.035982,0.0050398,0.012307,2.3897,0.017776,0.028025,8.7934e-07,0.24,0.45,0
0.0099931,0.00021005,0.035935,0.004616,0.012165,0.0011408,0,0,0.030901,-0.0098142,0,0.0029661,0,0,0,0.035977,0.0045741,0.012165,2.0855,0.017572,0.02838,8.9683e-07,0.25,0.45,0
0.010303,0.00016538,0.035945,0.0041348,0.012024,0.0009998,0,0,0.031097,-0.010256,0,0.0025995,0,0,0,0.035977,0.0041031,0.012024,1.8005,0.017368,0.028744,9.1459e-07,0.26,0.45,0
0.010615,0.00011866,0.035957,0.0036511,0.011882,0.00086446,0,0,0.031297,-0.010701,0,0.0022476,0,0,0,0.03598,0.0036277,0.011882,1.5336,0.017163,0.029117,9.3259e-07,0.27,0.45,0
0.010929,6.9924e-05,0.035971,0.0031657,0.011741,0.00073459,0,0,0.031499,-0.011148,0,0.0019099,0,0,0,0.035988,0.003149,0.011741,1.2838,0.016959,0.029497,9.5078e-07,0.28,0.45,0
0.011245,1.9217e-05,0.035989,0.0026798,0.011601,0.00060994,0,0,0.031704,-0.011597,0,0.0015858,0,0,0,0.036,0.0026684,0.011601,1.0503,0.016756,0.029884,9.6909e-07,0.29,0.45,0
0.011563,-3.3385e-05,0.036009,0.0021953,0.011461,0.00049026,0,0,0.031912,-0.012046,0,0.0012747,0,0,0,0.036016,0.0021879,0.011461,0.83196,0.016555,0.030276,9.8745e-07,0.3,0.45,0
0.011883,-8.7791e-05,0.036032,0.0017141,0.011324,0.00037527,0,0,0.03212,-0.012492,0,0.00097571,0,0,0,0.036036,0.0017098,0.011324,0.62777,0.016356,0.030671,1.0057e-06,0.31,0.45,0
0.012206,-0.00014389,0.036057,0.001239,0.011189,0.00026474,0,0,0.032329,-0.012935,0,0.00068834,0,0,0,0.036059,0.0012368,0.011189,0.43682,0.016162,0.031066,1.0239e-06,0.32,0.45,0
0.01253,-0.00020156,0.036084,0.00077333,0.011057,0.00015859,0,0,0.032535,-0.013369,0,0.00041233,0,0,0,0.036085,0.00077245,0.011057,0.25839,0.015971,0.031458,1.0416e-06,0.33,0.45,0
0.012856,-0.00026065,0.036112,0.00032086,0.01093,5.7031e-05,0,0,0.032737,-0.013792,0,0.00014828,0,0,0,0.036112,0.00032061,0.01093,0.092224,0.015787,0.031841,1.0587e-06,0.34,0.45,0
0.013185,-0.00032097,0.036139,-0.00011402,0.010808,-3.922e-05,0,0,0.032931,-0.014198,0,-0.00010197,0,0,0,0.036139,-0.00011419,0.010808,-0.061194,0.015611,0.032213,1.0751e-06,0.35,0.45,0
0.013515,-0.0003823,0.036164,-0.0005265,0.010691,-0.00012875,0,0,0.033115,-0.014583,0,-0.00033476,0,0,0,0.036165,-0.00052705,0.010691,-0.20041,0.015443,0.032566,1.0902e-06,0.36,0.45,0
0.013847,-0.00044438,0.036185,-0.00091162,0.010582,-0.00020932,0,0,0.033284,-0.014942,0,-0.00054422,0,0,0,0.036186,-0.00091288,0.010582,-0.32277,0.015285,0.032894,1.104e-06,0.37,0.45,0
0.014181,-0.00050686,0.036199,-0.0012647,0.01048,-0.00027775,0,0,0.033434,-0.015269,0,-0.00072215,0,0,0,0.036201,-0.0012668,0.01048,-0.42439,0.015138,0.033192,1.1159e-06,0.38,0.45,0
0.014516,-0.00056931,0.036206,-0.0015818,0.010387,-0.00033015,0,0,0.033564,-0.01556,0,-0.00085839,0,0,0,0.036209,-0.0015848,0.010387,-0.50031,0.015004,0.033455,1.1259e-06,0.39,0.45,0
0.014852,-0.00063123,0.036203,-0.0018606,0.010303,-0.00036219,0,0,0.033671,-0.015813,0,-0.00094169,0,0,0,0.036207,-0.0018641,0.010303,-0.54501,0.014882,0.033678,1.1338e-06,0.4,0.45,0
0.015189,-0.00069198,0.036192,-0.0021006,0.010227,-0.00036963,0,0,0.033754,-0.016026,0,-0.00096103,0,0,0,0.036196,-0.0021042,0.010227,-0.55297,0.014773,0.033862,1.1395e-06,0.41,0.45,0
0.015527,-0.00075086,0.036174,-0.0023043,0.010161,-0.00034897,0,0,0.033817,-0.016205,0,-0.00090733,0,0,0,0.036177,-0.0023075,0.010161,-0.51962,0.014677,0.03401,1.1434e-06,0.42,0.45,0
0.015865,-0.00080708,0.036152,-0.002478,0.010102,-0.00029856,0,0,0.033865,-0.016354,0,-0.00077624,0,0,0,0.036155,-0.0024804,0.010102,-0.44287,0.014592,0.03413,1.1461e-06,0.43,0.45,0
0.016204,-0.00085977,0.036132,-0.0026344,0.010049,-0.00022023,0,0,0.033907,-0.016489,0,-0.00057259,0,0,0,0.036133,-0.0026358,0.010049,-0.32563,0.014515,0.034237,1.1482e-06,0.44,0.45,0
0.016543,-0.00090805,0.036102,-0.0027899,0.0099937,-0.0001174,0,0,0.033941,-0.016619,0,-0.00030523,0,0,0,0.036103,-0.0027904,0.0099937,-0.1731,0.014435,0.034335,1.1496e-06,0.45,0.45,0
0.016883,-0.00095076,0.036046,-0.0029366,0.0099329,2.7379e-05,0,0,0.033947,-0.01673,0,7.1185e-05,0,0,0,0.036047,-0.0029371,0.0099329,0.040243,0.014347,0.034404,1.1482e-06,0.46,0.45,0
0.017222,-0.00098542,0.036015,-0.0030497,0.0098897,0.00028456,0,0,0.033963,-0.016821,0,0.00073987,0,0,0,0.036019,-0.0030534,0.0098897,0.41668,0.014285,0.034474,1.1485e-06,0.47,0.45,0
0.017562,-0.0010076,0.036056,-0.0021754,0.010164,0.0007043,0,0,0.037534,-0.017167,0,0.0023112,0,0,0,0.036074,-0.0021938,0.010164,1.0975,0.014681,0.033849,1.1216e-06,0.48,0.45,0
0.017973,-0.0010051,0.036135,0.00058436,0.011016,0.0011315,0,0,0.048241,-0.018387,0,0.0048052,0,0,0,0.036177,0.000542,0.011016,1.9011,0.015912,0.031772,1.0385e-06,0.49,0.45,0
0.018527,-0.00097008,0.03626,0.0030511,0.011793,0.0013241,0,0,0.059335,-0.020478,0,0.0065675,0,0,0,0.036314,0.0029962,0.011793,2.3085,0.017035,0.029929,9.7578e-07,0.5,0.45,0
0.01916,-0.00091741,0.036392,0.0032037,0.011879,0.0012748,0,0,0.063735,-0.022555,0,0.0066292,0,0,0,0.036441,0.0031542,0.011879,2.2002,0.017158,0.029897,9.8857e-07,0.51,0.45,0
0.019802,-0.00086264,0.036438,0.0023697,0.011642,0.0011379,0,0,0.064469,-0.024109,0,0.0059173,0,0,0,0.036476,0.0023312,0.011642,1.9143,0.016817,0.030573,1.0217e-06,0.52,0.45,0
0.020449,-0.00080895,0.036386,0.0017308,0.011435,0.0010121,0,0,0.064873,-0.025231,0,0.0052627,0,0,0,0.036416,0.0017009,0.011435,1.6734,0.016517,0.031016,1.0389e-06,0.53,0.45,0
0.021099,-0.00075651,0.036275,0.001234,0.011253,0.0009234,0,0,0.065058,-0.026049,0,0.0048017,0,0,0,0.0363,0.0012093,0.011253,1.5096,0.016254,0.031302,1.0457e-06,0.54,0.45,0
0.02175,-0.0007047,0.036134,0.00084823,0.011095,0.00086725,0,0,0.065102,-0.026641,0,0.0045097,0,0,0,0.036155,0.00082654,0.011095,1.4078,0.016025,0.031477,1.046e-06,0.55,0.45,0
0.022401,-0.00065297,0.035976,0.00055076,0.010958,0.0008328,0,0,0.065047,-0.027059,0,0.0043306,0,0,0,0.035996,0.00053079,0.010958,1.3464,0.015828,0.031571,1.0418e-06,0.56,0.45,0
0.023051,-0.00060097,0.035811,0.00032347,0.01084,0.00081045,0,0,0.064924,-0.027344,0,0.0042143,0,0,0,0.03583,0.00030456,0.01084,1.3079,0.015658,0.031603,1.0346e-06,0.57,0.45,0
0.0237,-0.00054857,0.035644,0.00015172,0.010739,0.00079304,0,0,0.064754,-0.027526,0,0.0041238,0,0,0,0.035662,0.0001336,0.010739,1.2796,0.015512,0.031591,1.0255e-06,0.58,0.45,0
0.024346,-0.0004958,0.03548,2.3585e-05,0.010651,0.00077575,0,0,0.064555,-0.027631,0,0.0040339,0,0,0,0.035497,6.2343e-06,0.010651,1.253,0.015385,0.031545,1.0152e-06,0.59,0.45,0
0.024991,-0.00044283,0.03532,-7.0654e-05,0.010575,0.00075558,0,0,0.064338,-0.027678,0,0.003929,0,0,0,0.035337,-8.7135e-05,0.010575,1.2227,0.015275,0.031478,1.0043e-06,0.6,0.45,0
0.025633,-0.00038987,0.035168,-0.00013894,0.010509,0.00073088,0,0,0.064115,-0.027684,0,0.0038006,0,0,0,0.035184,-0.00015439,0.010509,1.1855,0.015179,0.031395,9.9338e-07,0.61,0.45,0
0.026273,-0.0003372,0.035025,-0.00018774,0.010451,0.00070099,0,0,0.063892,-0.027661,0,0.0036451,0,0,0,0.035039,-0.00020198,0.010451,1.1401,0.015096,0.031305,9.8263e-07,0.62,0.45,0
0.026911,-0.00028512,0.034892,-0.00022228,0.010401,0.00066587,0,0,0.063676,-0.02762,0,0.0034625,0,0,0,0.034905,-0.00023516,0.010401,1.0861,0.015023,0.031212,9.7233e-07,0.63,0.45,0
0.027547,-0.0002339,0.034769,-0.00024679,0.010357,0.00062597,0,0,0.063471,-0.027569,0,0.003255,0,0,0,0.03478,-0.00025821,0.010357,1.0239,0.014959,0.03112,9.6264e-07,0.64,0.45,0
0.02818,-0.00018382,0.034656,-0.00026462,0.010317,0.00058197,0,0,0.06328,-0.027513,0,0.0030263,0,0,0,0.034666,-0.00027451,0.010317,0.9546,0.014903,0.031031,9.5368e-07,0.65,0.45,0
0.028812,-0.00013512,0.034553,-0.00027839,0.010283,0.00053474,0,0,0.063104,-0.027458,0,0.0027806,0,0,0,0.034562,-0.00028677,0.010283,0.8794,0.014853,0.030948,9.4549e-07,0.66,0.45,0
0.029442,-8.7995e-05,0.034461,-0.00029014,0.010251,0.00048519,0,0,0.062945,-0.027408,0,0.002523,0,0,0,0.034468,-0.00029706,0.010251,0.79981,0.014807,0.030873,9.3812e-07,0.67,0.45,0
0.030071,-4.2632e-05,0.034378,-0.00030139,0.010223,0.00043426,0,0,0.062803,-0.027363,0,0.0022582,0,0,0,0.034384,-0.00030695,0.010223,0.71736,0.014767,0.030806,9.3155e-07,0.68,0.45,0
0.030699,8.3103e-07,0.034304,-0.00031323,0.010197,0.00038284,0,0,0.062678,-0.027327,0,0.0019907,0,0,0,0.034309,-0.00031757,0.010197,0.63357,0.014729,0.030748,9.2578e-07,0.69,0.45,0
0.031325,4.2289e-05,0.034239,-0.00032642,0.010174,0.00033174,0,0,0.062569,-0.0273,0,0.001725,0,0,0,0.034242,-0.0003297,0.010174,0.54985,0.014695,0.030699,9.2077e-07,0.7,0.45,0
0.03195,8.167e-05,0.034181,-0.00034144,0.010152,0.00028169,0,0,0.062476,-0.027283,0,0.0014648,0,0,0,0.034184,-0.00034382,0.010152,0.46749,0.014664,0.030658,9.1648e-07,0.71,0.45,0
0.032574,0.00011893,0.034131,-0.00035854,0.010132,0.00023334,0,0,0.062398,-0.027275,0,0.0012134,0,0,0,0.034133,-0.00036019,0.010132,0.38763,0.014635,0.030626,9.1284e-07,0.72,0.45,0
0.033198,0.00015405,0.034087,-0.0003778,0.010113,0.00018721,0,0,0.062333,-0.027276,0,0.00097351,0,0,0,0.034088,-0.00037887,0.010113,0.31123,0.014607,0.030601,9.0981e-07,0.73,0.45,0
0.033821,0.00018703,0.034049,-0.00039916,0.010095,0.00014375,0,0,0.062281,-0.027285,0,0.00074749,0,0,0,0.03405,-0.00039981,0.010095,0.23909,0.014582,0.030584,9.0733e-07,0.74,0.45,0
0.034444,0.00021791,0.034016,-0.00042247,0.010078,0.00010328,0,0,0.06224,-0.027302,0,0.00053704,0,0,0,0.034017,-0.00042281,0.010078,0.17183,0.014557,0.030573,9.0533e-07,0.75,0.45,0
0.035066,0.00024673,0.033988,-0.0004475,0.010062,6.6052e-05,0,0,0.062208,-0.027325,0,0.00034347,0,0,0,0.033989,-0.00044765,0.010062,0.10991,0.014534,0.030568,9.0377e-07,0.76,0.45,0
0.035688,0.00027353,0.033964,-0.00047398,0.010047,3.224e-05,0,0,0.062185,-0.027355,0,0.00016765,0,0,0,0.033964,-0.00047403,0.010047,0.053644,0.014512,0.030567,9.0257e-07,0.77,0.45,0
0.036309,0.00029839,0.033944,-0.00050161,0.010033,1.9383e-06,0,0,0.062169,-0.027389,0,1.0079e-05,0,0,0,0.033944,-0.00050163,0.010033,0.0032287,0.014492,0.030571,9.017e-07,0.78,0.45,0
0.036931,0.00032139,0.033926,-0.00053009,0.010019,-2.4818e-05,0,0,0.06216,-0.027427,0,-0.00012906,0,0,0,0.033927,-0.00053012,0.010019,-0.041266,0.014472,0.030579,9.011e-07,0.79,0.45,0
0.037553,0.0003426,0.033912,-0.00055909,0.010006,-4.8049e-05,0,0,0.062156,-0.027469,0,-0.00024985,0,0,0,0.033912,-0.00055917,0.010006,-0.079862,0.014453,0.030589,9.0072e-07,0.8,0.45,0
0.038174,0.00036211,0.033899,-0.00058833,0.0099933,-6.7815e-05,0,0,0.062156,-0.027512,0,-0.00035264,0,0,0,0.0339,-0.00058847,0.0099933,-0.11266,0.014435,0.030602,9.0054e-07,0.81,0.45,0
0.038796,0.00038001,0.033889,-0.0006175,0.0099815,-8.4217e-05,0,0,0.06216,-0.027557,0,-0.00043793,0,0,0,0.033889,-0.00061771,0.0099815,-0.13984,0.014418,0.030616,9.0051e-07,0.82,0.45,0
0.039417,0.00039638,0.03388,-0.00064634,0.0099702,-9.7382e-05,0,0,0.062166,-0.027603,0,-0.00050639,0,0,0,0.033881,-0.00064662,0.0099702,-0.1616,0.014401,0.030631,9.006e-07,0.83,0.45,0
0.040039,0.00041131,0.033873,-0.00067459,0.0099595,-0.00010746,0,0,0.062175,-0.027649,0,-0.00055879,0,0,0,0.033873,-0.00067493,0.0099595,-0.17822,0.014386,0.030647,9.0078e-07,0.84,0.45,0
0.040661,0.00042487,0.033867,-0.00070204,0.0099494,-0.00011462,0,0,0.062185,-0.027694,0,-0.00059603,0,0,0,0.033867,-0.00070242,0.0099494,-0.18998,0.014371,0.030664,9.0103e-07,0.85,0.45,0
0.041283,0.00043717,0.033862,-0.00072847,0.0099399,-0.00011904,0,0,0.062196,-0.027738,0,-0.00061902,0,0,0,0.033862,-0.00072889,0.0099399,-0.19719,0.014358,0.030681,9.0133e-07,0.86,0.45,0
0.041905,0.00044826,0.033857,-0.00075371,0.0099311,-0.00012091,0,0,0.062208,-0.02778,0,-0.00062875,0,0,0,0.033858,-0.00075414,0.0099311,-0.20017,0.014345,0.030697,9.0166e-07,0.87,0.45,0
0.042527,0.00045823,0.033854,-0.0007776,0.0099228,-0.00012043,0,0,0.06222,-0.027821,0,-0.00062622,0,0,0,0.033854,-0.00077802,0.0099228,-0.19925,0.014333,0.030713,9.0201e-07,0.88,0.45,0
0.043149,0.00046715,0.033851,-0.00079999,0.0099152,-0.00011778,0,0,0.062232,-0.027859,0,-0.00061245,0,0,0,0.033851,-0.00080039,0.0099152,-0.19476,0.014322,0.030728,9.0236e-07,0.89,0.45,0
0.043772,0.00047507,0.033848,-0.00082076,0.0099082,-0.00011316,0,0,0.062244,-0.027895,0,-0.00058846,0,0,0,0.033848,-0.00082113,0.0099082,-0.18703,0.014312,0.030743,9.027e-07,0.9,0.45,0
0.044394,0.00048206,0.033846,-0.00083981,0.0099018,-0.00010678,0,0,0.062254,-0.027928,0,-0.00055524,0,0,0,0.033846,-0.00084014,0.0099018,-0.17639,0.014303,0.030756,9.0303e-07,0.91,0.45,0
0.045017,0.00048816,0.033844,-0.00085706,0.0098961,-9.8809e-05,0,0,0.062265,-0.027958,0,-0.00051381,0,0,0,0.033844,-0.00085734,0.0098961,-0.16315,0.014294,0.030768,9.0334e-07,0.92,0.45,0
0.045639,0.00049344,0.033843,-0.00087243,0.009891,-8.9447e-05,0,0,0.062274,-0.027985,0,-0.00046513,0,0,0,0.033843,-0.00087266,0.009891,-0.14763,0.014287,0.030779,9.0362e-07,0.93,0.45,0
0.046262,0.00049793,0.033841,-0.00088586,0.0098866,-7.8878e-05,0,0,0.062282,-0.028008,0,-0.00041016,0,0,0,0.033841,-0.00088604,0.0098866,-0.13014,0.014281,0.030789,9.0387e-07,0.94,0.45,0
0.046885,0.00050166,0.03384,-0.0008973,0.0098829,-6.7281e-05,0,0,0.062289,-0.028029,0,-0.00034986,0,0,0,0.03384,-0.00089743,0.0098829,-0.11098,0.014275,0.030797,9.0409e-07,0.95,0.45,0
0.047508,0.00050468,0.03384,-0.00090671,0.0098798,-5.4835e-05,0,0,0.062295,-0.028045,0,-0.00028514,0,0,0,0.03384,-0.0009068,0.0098798,-0.090425,0.014271,0.030804,9.0427e-07,0.96,0.45,0
0.048131,0.00050699,0.033839,-0.00091406,0.0098775,-4.1713e-05,0,0,0.0623,-0.028058,0,-0.00021691,0,0,0,0.033839,-0.00091411,0.0098775,-0.068774,0.014267,0.030809,9.0441e-07,0.97,0.45,0
0.048754,0.00050864,0.033838,-0.00091932,0.0098757,-2.8088e-05,0,0,0.062303,-0.028067,0,-0.00014606,0,0,0,0.033839,-0.00091935,0.0098757,-0.046303,0.014265,0.030813,9.0451e-07,0.98,0.45,0
0.049377,0.00050961,0.033838,-0.00092249,0.0098747,-1.2566e-05,0,0,0.062305,-0.028073,0,-6.5345e-05,0,0,0,0.033838,-0.0009225,0.0098747,-0.020714,0.014263,0.030815,9.0457e-07,0.99,0.45,0
0.049688,0.00050994,0.033838,-0.00092354,0.0098744,-3.9624e-06,0,0,0.062306,-0.028075,0,-2.0604e-05,0,0,0,0.033838,-0.00092355,0.0098744,-0.006531,0.014263,0.030816,9.0459e-07,1,0.45,0
0.00024872,8.9049e-06,0.033473,0.014229,0.014311,0.00035069,0,0,0.049823,-0.00021318,0,0.0018236,0,0,0,0.03348,0.014222,0.014311,1.0426,0.020671,0.019214,3.6431e-07,0,0.46,0
0.00049823,2.0192e-05,0.033487,0.014103,0.014277,0.00038102,0,0,0.049947,-0.00045325,0,0.0019813,0,0,0,0.033495,0.014095,0.014277,1.1234,0.020622,0.01931,3.6973e-07,0.01,0.46,0
0.00099894,4.7478e-05,0.033537,0.013835,0.014211,0.00046262,0,0,0.050246,-0.00097941,0,0.0024056,0,0,0,0.033548,0.013824,0.014211,1.341,0.020528,0.019534,3.8235e-07,0.02,0.46,0
0.0015031,8.4079e-05,0.033605,0.01353,0.01414,0.00056249,0,0,0.050607,-0.0015863,0,0.0029249,0,0,0,0.033621,0.013514,0.01414,1.6006,0.020425,0.019801,3.9745e-07,0.03,0.46,0
0.0020111,0.00012974,0.033664,0.013186,0.014055,0.00065569,0,0,0.050983,-0.0022592,0,0.0034096,0,0,0,0.033685,0.013165,0.014055,1.8293,0.020302,0.020091,4.1376e-07,0.04,0.46,0
0.0025228,0.00018404,0.033709,0.0128,0.013953,0.00073668,0,0,0.051367,-0.0029976,0,0.0038307,0,0,0,0.033735,0.012774,0.013953,2.0132,0.020154,0.020398,4.3105e-07,0.05,0.46,0
0.0030384,0.00024623,0.033732,0.012366,0.01383,0.00079212,0,0,0.051747,-0.0038046,0,0.004119,0,0,0,0.033762,0.012337,0.01383,2.1196,0.019976,0.02072,4.4888e-07,0.06,0.46,0
0.0035577,0.00031498,0.033707,0.011884,0.013677,0.0008027,0,0,0.052077,-0.0046627,0,0.0041741,0,0,0,0.033736,0.011854,0.013677,2.1055,0.019756,0.021031,4.6569e-07,0.07,0.46,0
0.00408,0.00038856,0.033606,0.011378,0.013495,0.00075448,0,0,0.052289,-0.0055052,0,0.0039233,0,0,0,0.033632,0.011352,0.013495,1.9465,0.019493,0.021291,4.7881e-07,0.08,0.46,0
0.0046035,0.00046563,0.033436,0.010826,0.013279,0.00062748,0,0,0.05241,-0.0063778,0,0.0032629,0,0,0,0.033456,0.010805,0.013279,1.6013,0.01918,0.021522,4.8941e-07,0.09,0.46,0
0.0051282,0.00054278,0.033603,0.010378,0.013194,0.00042971,0,0,0.051893,-0.0071412,0,0.0021007,0,0,0,0.033619,0.010363,0.013194,1.0515,0.019059,0.021978,5.2532e-07,0.1,0.46,0
0.0056453,0.00060739,0.034314,0.010452,0.01343,0.00044099,0,0,0.048759,-0.0069716,0,0.001491,0,0,0,0.034347,0.010419,0.01343,0.96103,0.019399,0.022574,5.942e-07,0.11,0.46,0
0.0061169,0.00063933,0.034505,0.010853,0.013608,0.0010273,0,0,0.042052,-0.0055984,0,0.002999,0,0,0,0.034611,0.010747,0.013608,2.3592,0.019655,0.022571,6.2305e-07,0.12,0.46,0
0.006502,0.00062795,0.034073,0.010887,0.013488,0.0019629,0,0,0.034642,-0.0043177,0,0.0057193,0,0,0,0.034294,0.010666,0.013488,4.6843,0.019483,0.022352,6.0423e-07,0.13,0.46,0
0.0068147,0.00058406,0.034429,0.010371,0.01344,0.0025797,0,0,0.03017,-0.004291,0,0.0072003,0,0,0,0.034717,0.010082,0.01344,6.0173,0.019413,0.023144,6.2771e-07,0.14,0.46,0
0.0071029,0.00053097,0.035273,0.0096267,0.01347,0.0026844,0,0,0.028869,-0.0050478,0,0.0071214,0,0,0,0.035554,0.0093464,0.01347,5.9379,0.019457,0.024411,6.863e-07,0.15,0.46,0
0.0073907,0.00048397,0.03556,0.0089991,0.013368,0.0025984,0,0,0.02885,-0.0056793,0,0.0067559,0,0,0,0.035813,0.0087465,0.013368,5.5422,0.019309,0.025078,7.1926e-07,0.16,0.46,0
0.0076799,0.00044338,0.035527,0.0085153,0.013213,0.0024685,0,0,0.029009,-0.0061068,0,0.006418,0,0,0,0.035752,0.0082906,0.013213,5.1839,0.019085,0.025362,7.3327e-07,0.17,0.46,0
0.0079709,0.0004052,0.035536,0.008058,0.013078,0.0022886,0,0,0.029195,-0.0065262,0,0.0059504,0,0,0,0.035726,0.0078677,0.013078,4.7327,0.018891,0.025654,7.4835e-07,0.18,0.46,0
0.0082638,0.00036741,0.035575,0.0076004,0.012953,0.0021005,0,0,0.029409,-0.0069579,0,0.0054614,0,0,0,0.035733,0.0074426,0.012953,4.2737,0.018709,0.025978,7.6582e-07,0.19,0.46,0
0.008559,0.00032896,0.035624,0.0071374,0.012828,0.0019184,0,0,0.029634,-0.0073982,0,0.0049879,0,0,0,0.035753,0.007008,0.012828,3.8386,0.01853,0.026323,7.8465e-07,0.2,0.46,0
0.0088565,0.00028928,0.035672,0.0066694,0.012702,0.0017451,0,0,0.02986,-0.0078427,0,0.0045374,0,0,0,0.035777,0.0065641,0.012702,3.434,0.018348,0.026679,8.04e-07,0.21,0.46,0
0.0091562,0.00024801,0.035714,0.0061971,0.012573,0.0015801,0,0,0.030083,-0.008289,0,0.0041083,0,0,0,0.035799,0.0061122,0.012573,3.0582,0.018161,0.027042,8.2346e-07,0.22,0.46,0
0.0094582,0.00020492,0.03575,0.005721,0.012441,0.0014222,0,0,0.030301,-0.0087365,0,0.0036978,0,0,0,0.035818,0.0056532,0.012441,2.7081,0.017971,0.027409,8.4284e-07,0.23,0.46,0
0.0097623,0.00015988,0.035781,0.0052412,0.012307,0.0012706,0,0,0.030517,-0.0091851,0,0.0033035,0,0,0,0.035834,0.005188,0.012307,2.3806,0.017776,0.02778,8.6209e-07,0.24,0.46,0
0.010068,0.00011281,0.035808,0.004758,0.01217,0.0011245,0,0,0.03073,-0.0096353,0,0.0029236,0,0,0,0.035849,0.0047169,0.01217,2.0736,0.017579,0.028156,8.8123e-07,0.25,0.46,0
0.010377,6.3668e-05,0.035832,0.0042717,0.012031,0.00098357,0,0,0.030941,-0.010087,0,0.0025573,0,0,0,0.035863,0.0042407,0.012031,1.7854,0.017378,0.028536,9.0028e-07,0.26,0.46,0
0.010687,1.2454e-05,0.035854,0.0037829,0.011891,0.00084767,0,0,0.031151,-0.01054,0,0.0022039,0,0,0,0.035876,0.0037602,0.011891,1.5149,0.017176,0.028921,9.1926e-07,0.27,0.46,0
0.011,-4.0797e-05,0.035875,0.0032925,0.01175,0.00071668,0,0,0.031362,-0.010995,0,0.0018634,0,0,0,0.035891,0.0032765,0.01175,1.2613,0.016972,0.029311,9.3814e-07,0.28,0.46,0
0.011315,-9.6023e-05,0.035895,0.0028018,0.011609,0.00059055,0,0,0.031572,-0.01145,0,0.0015354,0,0,0,0.035906,0.002791,0.011609,1.0237,0.016769,0.029705,9.5691e-07,0.29,0.46,0
0.011631,-0.00015314,0.035916,0.0023124,0.011469,0.00046924,0,0,0.031782,-0.011903,0,0.00122,0,0,0,0.035923,0.0023056,0.011469,0.80138,0.016566,0.030101,9.7549e-07,0.3,0.46,0
0.01195,-0.00021203,0.035937,0.0018266,0.011329,0.00035273,0,0,0.03199,-0.012353,0,0.00091709,0,0,0,0.035941,0.0018228,0.011329,0.59377,0.016364,0.030497,9.9378e-07,0.31,0.46,0
0.012271,-0.00027257,0.035958,0.001347,0.011191,0.00024107,0,0,0.032196,-0.012798,0,0.00062678,0,0,0,0.03596,0.0013451,0.011191,0.40028,0.016165,0.030892,1.0117e-06,0.32,0.46,0
0.012594,-0.00033459,0.035978,0.00087662,0.011057,0.0001345,0,0,0.032398,-0.013234,0,0.00034969,0,0,0,0.035979,0.00087594,0.011057,0.22063,0.01597,0.031281,1.029e-06,0.33,0.46,0
0.012919,-0.0003979,0.035998,0.00041891,0.010925,3.3562e-05,0,0,0.032594,-0.013658,0,8.7261e-05,0,0,0,0.035998,0.00041874,0.010925,0.055001,0.01578,0.031662,1.0455e-06,0.34,0.46,0
0.013246,-0.0004623,0.036014,-2.2302e-05,0.010798,-6.07e-05,0,0,0.032782,-0.014066,0,-0.00015782,0,0,0,0.036015,-2.252e-05,0.010798,-0.095699,0.015597,0.032029,1.0611e-06,0.35,0.46,0
0.013575,-0.00052749,0.036028,-0.000443,0.010675,-0.00014661,0,0,0.032958,-0.014454,0,-0.00038119,0,0,0,0.036028,-0.00044368,0.010675,-0.22966,0.01542,0.032378,1.0755e-06,0.36,0.46,0
0.013905,-0.00059318,0.036036,-0.00083911,0.010559,-0.00022175,0,0,0.03312,-0.014818,0,-0.00057655,0,0,0,0.036038,-0.00084051,0.010559,-0.34402,0.015252,0.032704,1.0884e-06,0.37,0.46,0
0.014237,-0.00065897,0.036038,-0.0012068,0.010449,-0.00028297,0,0,0.033265,-0.015153,0,-0.00073573,0,0,0,0.03604,-0.001209,0.010449,-0.43491,0.015094,0.033003,1.0996e-06,0.38,0.46,0
0.01457,-0.00072439,0.036032,-0.0015428,0.010347,-0.0003266,0,0,0.033391,-0.015457,0,-0.00084916,0,0,0,0.036035,-0.0015457,0.010347,-0.49773,0.014945,0.033269,1.1089e-06,0.39,0.46,0
0.014905,-0.00078891,0.036017,-0.0018449,0.010252,-0.00034878,0,0,0.033495,-0.015725,0,-0.00090684,0,0,0,0.03602,-0.0018481,0.010252,-0.52764,0.014808,0.033499,1.1162e-06,0.4,0.46,0
0.01524,-0.00085189,0.035991,-0.0021122,0.010164,-0.0003461,0,0,0.033576,-0.015959,0,-0.00089985,0,0,0,0.035994,-0.0021153,0.010164,-0.52033,0.014681,0.033692,1.1212e-06,0.41,0.46,0
0.015576,-0.00091266,0.035954,-0.0023461,0.010082,-0.00031631,0,0,0.033633,-0.016157,0,-0.0008224,0,0,0,0.035957,-0.0023488,0.010082,-0.47315,0.014564,0.033848,1.1242e-06,0.42,0.46,0
0.015913,-0.00097047,0.035905,-0.0025513,0.010006,-0.0002592,0,0,0.033669,-0.016325,0,-0.00067393,0,0,0,0.035907,-0.0025532,0.010006,-0.38617,0.014453,0.033969,1.1251e-06,0.43,0.46,0
0.01625,-0.0010245,0.035842,-0.0027362,0.0099317,-0.00017616,0,0,0.033683,-0.016468,0,-0.00045802,0,0,0,0.035843,-0.0027372,0.0099317,-0.26158,0.014346,0.034061,1.124e-06,0.44,0.46,0
0.016587,-0.0010741,0.03576,-0.0029111,0.0098548,-6.443e-05,0,0,0.033677,-0.016596,0,-0.00016752,0,0,0,0.035761,-0.0029116,0.0098548,-0.09536,0.014235,0.03413,1.121e-06,0.45,0.46,0
0.016923,-0.0011179,0.035676,-0.0030914,0.0097755,9.4861e-05,0,0,0.033671,-0.016727,0,0.00024664,0,0,0,0.035677,-0.0030922,0.0097755,0.14003,0.01412,0.034202,1.1178e-06,0.46,0.46,0
0.01726,-0.0011542,0.03563,-0.0033512,0.0096837,0.00033604,0,0,0.03373,-0.016945,0,0.0008737,0,0,0,0.035634,-0.0033553,0.0096837,0.49214,0.013988,0.034378,1.1202e-06,0.47,0.46,0
0.017598,-0.0011809,0.035643,-0.0026309,0.0099035,0.00065441,0,0,0.037298,-0.017435,0,0.0020831,0,0,0,0.035657,-0.0026449,0.0099035,1.0104,0.014305,0.033843,1.0951e-06,0.48,0.46,0
0.018006,-0.0011896,0.035724,0.00025945,0.010795,0.00095576,0,0,0.047829,-0.018504,0,0.00401,0,0,0,0.035753,0.00022996,0.010795,1.608,0.015593,0.031647,1.0101e-06,0.49,0.46,0
0.018555,-0.0011729,0.035875,0.0030155,0.011667,0.0011321,0,0,0.058683,-0.020213,0,0.0056202,0,0,0,0.035915,0.0029748,0.011667,1.9964,0.016852,0.029593,9.4266e-07,0.5,0.46,0
0.01918,-0.0011399,0.036031,0.0033065,0.011801,0.0011702,0,0,0.062998,-0.022087,0,0.0060852,0,0,0,0.036073,0.0032643,0.011801,2.0457,0.017046,0.029484,9.5365e-07,0.51,0.46,0
0.019815,-0.0011012,0.036128,0.0024712,0.01158,0.0011329,0,0,0.063825,-0.023682,0,0.0058909,0,0,0,0.036166,0.002433,0.01158,1.9269,0.016726,0.030217,9.915e-07,0.52,0.46,0
0.020456,-0.0010595,0.036147,0.0018019,0.011385,0.0010793,0,0,0.064383,-0.024915,0,0.0056122,0,0,0,0.036181,0.0017679,0.011385,1.7993,0.016445,0.030755,1.0162e-06,0.53,0.46,0
0.021102,-0.0010158,0.036096,0.0012785,0.011212,0.0010362,0,0,0.064697,-0.025828,0,0.005388,0,0,0,0.036127,0.0012475,0.011212,1.704,0.016196,0.031118,1.0294e-06,0.54,0.46,0
0.02175,-0.00097033,0.035995,0.00087502,0.011061,0.0010076,0,0,0.064828,-0.026483,0,0.0052394,0,0,0,0.036024,0.00084588,0.011061,1.6426,0.015977,0.031345,1.0339e-06,0.55,0.46,0
0.022399,-0.00092301,0.035863,0.00056826,0.010929,0.00098859,0,0,0.064828,-0.026939,0,0.0051407,0,0,0,0.035891,0.00054026,0.010929,1.6037,0.015787,0.03147,1.0324e-06,0.56,0.46,0
0.023047,-0.00087398,0.035714,0.00033807,0.010816,0.00097319,0,0,0.064736,-0.027242,0,0.0050606,0,0,0,0.035741,0.00031095,0.010816,1.5751,0.015623,0.031519,1.0267e-06,0.57,0.46,0
0.023693,-0.00082345,0.035558,0.00016777,0.010718,0.00095667,0,0,0.064584,-0.02743,0,0.0049747,0,0,0,0.035584,0.00014155,0.010718,1.5477,0.015481,0.031515,1.0185e-06,0.58,0.46,0
0.024338,-0.00077173,0.0354,4.3786e-05,0.010633,0.00093597,0,0,0.064394,-0.027532,0,0.0048671,0,0,0,0.035425,1.8655e-05,0.010633,1.5157,0.015359,0.031472,1.0087e-06,0.59,0.46,0
0.024981,-0.0007192,0.035246,-4.4894e-05,0.01056,0.00090943,0,0,0.064183,-0.027574,0,0.004729,0,0,0,0.03527,-6.8662e-05,0.01056,1.4755,0.015254,0.031404,9.9813e-07,0.6,0.46,0
0.025622,-0.00066627,0.035099,-0.00010712,0.010498,0.00087637,0,0,0.063964,-0.027572,0,0.0045571,0,0,0,0.035121,-0.00012924,0.010498,1.4253,0.015163,0.03132,9.8738e-07,0.61,0.46,0
0.026261,-0.00061334,0.034961,-0.00014998,0.010443,0.00083684,0,0,0.063746,-0.027543,0,0.0043516,0,0,0,0.034981,-0.0001702,0.010443,1.3648,0.015085,0.031228,9.7683e-07,0.62,0.46,0
0.026897,-0.00056081,0.034833,-0.00017914,0.010396,0.00079139,0,0,0.063535,-0.027496,0,0.0041153,0,0,0,0.034851,-0.00019728,0.010396,1.2944,0.015017,0.031134,9.6676e-07,0.63,0.46,0
0.027531,-0.00050905,0.034715,-0.00019908,0.010355,0.00074086,0,0,0.063337,-0.02744,0,0.0038525,0,0,0,0.034731,-0.00021502,0.010355,1.2152,0.014957,0.031041,9.5734e-07,0.64,0.46,0
0.028164,-0.0004584,0.034608,-0.00021329,0.010318,0.00068624,0,0,0.063153,-0.027382,0,0.0035684,0,0,0,0.034622,-0.00022701,0.010318,1.1287,0.014904,0.030954,9.4869e-07,0.65,0.46,0
0.028794,-0.00040914,0.034512,-0.00022448,0.010286,0.00062863,0,0,0.062986,-0.027328,0,0.0032689,0,0,0,0.034523,-0.00023603,0.010286,1.0366,0.014858,0.030874,9.4088e-07,0.66,0.46,0
0.029423,-0.00036151,0.034425,-0.00023466,0.010257,0.00056912,0,0,0.062837,-0.027279,0,0.0029594,0,0,0,0.034435,-0.00024415,0.010257,0.94056,0.014816,0.030802,9.3393e-07,0.67,0.46,0
0.030051,-0.00031572,0.034349,-0.00024531,0.010231,0.00050877,0,0,0.062707,-0.027239,0,0.0026456,0,0,0,0.034357,-0.00025292,0.010231,0.84246,0.014778,0.030739,9.2784e-07,0.68,0.46,0
0.030678,-0.00027192,0.034282,-0.00025745,0.010207,0.00044853,0,0,0.062594,-0.027208,0,0.0023324,0,0,0,0.034288,-0.00026338,0.010207,0.74395,0.014744,0.030686,9.2258e-07,0.69,0.46,0
0.031303,-0.00023022,0.034223,-0.00027174,0.010185,0.0003893,0,0,0.062498,-0.027189,0,0.0020244,0,0,0,0.034228,-0.00027622,0.010185,0.64656,0.014712,0.030643,9.181e-07,0.7,0.46,0
0.031928,-0.0001907,0.034172,-0.00028854,0.010165,0.00033182,0,0,0.062418,-0.027179,0,0.0017255,0,0,0,0.034175,-0.00029182,0.010165,0.55166,0.014683,0.030609,9.1435e-07,0.71,0.46,0
0.032551,-0.0001534,0.034128,-0.00030801,0.010146,0.00027673,0,0,0.062354,-0.027181,0,0.001439,0,0,0,0.03413,-0.0003103,0.010146,0.46042,0.014655,0.030584,9.1128e-07,0.72,0.46,0
0.033175,-0.00011833,0.034091,-0.0003301,0.010128,0.00022456,0,0,0.062302,-0.027191,0,0.0011677,0,0,0,0.034092,-0.00033162,0.010128,0.3738,0.01463,0.030567,9.0881e-07,0.73,0.46,0
0.033797,-8.5486e-05,0.034059,-0.00035466,0.010111,0.00017571,0,0,0.062263,-0.027211,0,0.00091367,0,0,0,0.03406,-0.0003556,0.010111,0.29255,0.014605,0.030557,9.0688e-07,0.74,0.46,0
0.03442,-5.4826e-05,0.034032,-0.00038143,0.010095,0.00013048,0,0,0.062235,-0.027239,0,0.00067851,0,0,0,0.034032,-0.00038197,0.010095,0.21726,0.014582,0.030554,9.0543e-07,0.75,0.46,0
0.035042,-2.6298e-05,0.034009,-0.00041011,0.01008,8.9092e-05,0,0,0.062216,-0.027273,0,0.00046328,0,0,0,0.034009,-0.00041037,0.01008,0.14832,0.014559,0.030556,9.0438e-07,0.76,0.46,0
0.035664,1.6225e-07,0.03399,-0.00044034,0.010065,5.1658e-05,0,0,0.062205,-0.027314,0,0.00026862,0,0,0,0.03399,-0.00044044,0.010065,0.085981,0.014538,0.030563,9.0369e-07,0.77,0.46,0
0.036286,2.4633e-05,0.033974,-0.00047176,0.010051,1.823e-05,0,0,0.062201,-0.027359,0,9.4795e-05,0,0,0,0.033974,-0.00047179,0.010051,0.030337,0.014518,0.030575,9.033e-07,0.78,0.46,0
0.036908,4.7199e-05,0.033961,-0.000504,0.010037,-1.1207e-05,0,0,0.062203,-0.027407,0,-5.8278e-05,0,0,0,0.033961,-0.00050401,0.010037,-0.018619,0.014498,0.030589,9.0315e-07,0.79,0.46,0
0.03753,6.795e-05,0.033951,-0.0005367,0.010024,-3.672e-05,0,0,0.062209,-0.027458,0,-0.00019094,0,0,0,0.033951,-0.00053675,0.010024,-0.060994,0.014479,0.030606,9.032e-07,0.8,0.46,0
0.038152,8.698e-05,0.033942,-0.00056952,0.010012,-5.8416e-05,0,0,0.062219,-0.027511,0,-0.00030376,0,0,0,0.033942,-0.00056962,0.010012,-0.096972,0.014462,0.030624,9.0341e-07,0.81,0.46,0
0.038775,0.00010438,0.033935,-0.00060214,0.0099999,-7.6439e-05,0,0,0.062232,-0.027565,0,-0.00039748,0,0,0,0.033935,-0.00060231,0.0099999,-0.1268,0.014444,0.030644,9.0375e-07,0.82,0.46,0
0.039397,0.00012026,0.03393,-0.00063426,0.0099886,-9.0957e-05,0,0,0.062246,-0.027619,0,-0.00047298,0,0,0,0.03393,-0.0006345,0.0099886,-0.15077,0.014428,0.030665,9.0417e-07,0.83,0.46,0
0.04002,0.00013469,0.033925,-0.00066563,0.0099778,-0.00010216,0,0,0.062263,-0.027673,0,-0.00053123,0,0,0,0.033925,-0.00066593,0.0099778,-0.16921,0.014412,0.030686,9.0466e-07,0.84,0.46,0
0.040642,0.00014777,0.033921,-0.00069599,0.0099676,-0.00011025,0,0,0.06228,-0.027725,0,-0.0005733,0,0,0,0.033922,-0.00069634,0.0099676,-0.18247,0.014398,0.030708,9.0519e-07,0.85,0.46,0
0.041265,0.00015959,0.033918,-0.00072514,0.009958,-0.00011544,0,0,0.062297,-0.027776,0,-0.00060026,0,0,0,0.033919,-0.00072552,0.009958,-0.19091,0.014384,0.030728,9.0575e-07,0.86,0.46,0
0.041888,0.00017023,0.033916,-0.00075289,0.0099489,-0.00011793,0,0,0.062314,-0.027825,0,-0.00061325,0,0,0,0.033916,-0.00075329,0.0099489,-0.1949,0.014371,0.030749,9.063e-07,0.87,0.46,0
0.042511,0.00017977,0.033914,-0.00077907,0.0099405,-0.00011796,0,0,0.062331,-0.027871,0,-0.0006134,0,0,0,0.033915,-0.00077948,0.0099405,-0.19481,0.014359,0.030768,9.0685e-07,0.88,0.46,0
0.043135,0.00018827,0.033913,-0.00080356,0.0099327,-0.00011573,0,0,0.062348,-0.027914,0,-0.00060181,0,0,0,0.033913,-0.00080395,0.0099327,-0.19101,0.014347,0.030786,9.0738e-07,0.89,0.46,0
0.043758,0.00019581,0.033911,-0.00082623,0.0099255,-0.00011147,0,0,0.062363,-0.027955,0,-0.00057962,0,0,0,0.033912,-0.00082659,0.0099255,-0.18385,0.014337,0.030803,9.0788e-07,0.9,0.46,0
0.044382,0.00020245,0.03391,-0.00084698,0.009919,-0.00010536,0,0,0.062378,-0.027992,0,-0.0005479,0,0,0,0.033911,-0.0008473,0.009919,-0.17369,0.014327,0.030819,9.0835e-07,0.91,0.46,0
0.045006,0.00020824,0.03391,-0.00086573,0.0099131,-9.7637e-05,0,0,0.062391,-0.028025,0,-0.00050771,0,0,0,0.03391,-0.00086601,0.0099131,-0.16087,0.014319,0.030833,9.0878e-07,0.92,0.46,0
0.04563,0.00021324,0.033909,-0.00088241,0.0099079,-8.848e-05,0,0,0.062402,-0.028055,0,-0.0004601,0,0,0,0.033909,-0.00088264,0.0099079,-0.14572,0.014311,0.030846,9.0916e-07,0.93,0.46,0
0.046254,0.00021748,0.033908,-0.00089697,0.0099034,-7.8087e-05,0,0,0.062413,-0.028081,0,-0.00040605,0,0,0,0.033909,-0.00089714,0.0099034,-0.12855,0.014305,0.030857,9.095e-07,0.94,0.46,0
0.046878,0.000221,0.033908,-0.00090935,0.0098996,-6.6647e-05,0,0,0.062422,-0.028103,0,-0.00034657,0,0,0,0.033908,-0.00090948,0.0098996,-0.10968,0.014299,0.030867,9.0979e-07,0.95,0.46,0
0.047502,0.00022384,0.033908,-0.00091952,0.0098964,-5.4343e-05,0,0,0.062429,-0.028121,0,-0.00028258,0,0,0,0.033908,-0.00091961,0.0098964,-0.089405,0.014295,0.030874,9.1003e-07,0.96,0.46,0
0.048127,0.00022602,0.033907,-0.00092746,0.009894,-4.1352e-05,0,0,0.062435,-0.028136,0,-0.00021503,0,0,0,0.033907,-0.00092751,0.009894,-0.068018,0.014291,0.030881,9.1021e-07,0.97,0.46,0
0.048751,0.00022756,0.033907,-0.00093315,0.0098922,-2.7851e-05,0,0,0.062439,-0.028146,0,-0.00014482,0,0,0,0.033907,-0.00093317,0.0098922,-0.045803,0.014289,0.030885,9.1035e-07,0.98,0.46,0
0.049376,0.00022848,0.033907,-0.00093656,0.0098911,-1.2543e-05,0,0,0.062441,-0.028152,0,-6.5222e-05,0,0,0,0.033907,-0.00093657,0.0098911,-0.020626,0.014287,0.030888,9.1043e-07,0.99,0.46,0
0.049688,0.00022879,0.033907,-0.0009377,0.0098908,-4.0917e-06,0,0,0.062442,-0.028154,0,-2.1277e-05,0,0,0,0.033907,-0.00093771,0.0098908,-0.006728,0.014287,0.030888,9.1045e-07,1,0.46,0
0.00024695,6.7961e-06,0.033235,0.014125,0.014208,0.00027129,0,0,0.04947,-0.00021584,0,0.0014107,0,0,0,0.033239,0.014121,0.014208,0.81226,0.020523,0.019075,3.5645e-07,0,0.47,0
0.0004947,1.5705e-05,0.03325,0.013999,0.014175,0.00030241,0,0,0.049596,-0.00045755,0,0.0015725,0,0,0,0.033255,0.013994,0.014175,0.89767,0.020474,0.019172,3.6184e-07,0.01,0.47,0
0.00099192,3.7774e-05,0.033302,0.013731,0.01411,0.00038656,0,0,0.0499,-0.00098569,0,0.0020101,0,0,0,0.03331,0.013723,0.01411,1.1278,0.020381,0.019397,3.7437e-07,0.02,0.47,0
0.0014927,6.8348e-05,0.033375,0.013428,0.014041,0.00049309,0,0,0.050268,-0.0015924,0,0.002564,0,0,0,0.033387,0.013416,0.014041,1.4119,0.020281,0.019667,3.8937e-07,0.03,0.47,0
0.0019973,0.00010733,0.033438,0.013088,0.013958,0.00059832,0,0,0.050648,-0.0022606,0,0.0031112,0,0,0,0.033456,0.013071,0.013958,1.6796,0.020161,0.019957,4.0552e-07,0.04,0.47,0
0.0025057,0.00015439,0.033484,0.012713,0.013859,0.00069646,0,0,0.051024,-0.0029795,0,0.0036216,0,0,0,0.033507,0.01269,0.013859,1.9158,0.020019,0.020259,4.2225e-07,0.05,0.47,0
0.0030178,0.00020887,0.0335,0.012305,0.013741,0.00077938,0,0,0.051372,-0.0037355,0,0.0040528,0,0,0,0.033529,0.012276,0.013741,2.1015,0.019849,0.02056,4.387e-07,0.06,0.47,0
0.0035331,0.00026975,0.03347,0.011871,0.013602,0.00083893,0,0,0.051656,-0.0045007,0,0.0043624,0,0,0,0.033503,0.011839,0.013602,2.2206,0.019648,0.020839,4.5352e-07,0.07,0.47,0
0.0040509,0.00033573,0.033382,0.011422,0.013441,0.00086827,0,0,0.051847,-0.0052501,0,0.004515,0,0,0,0.033417,0.011387,0.013441,2.2613,0.019415,0.021079,4.6556e-07,0.08,0.47,0
0.0045701,0.00040477,0.033204,0.010927,0.013239,0.00085196,0,0,0.051909,-0.0060129,0,0.0044302,0,0,0,0.033238,0.010893,0.013239,2.1889,0.019123,0.02127,4.7387e-07,0.09,0.47,0
0.0050891,0.00047329,0.032916,0.010379,0.012988,0.00073935,0,0,0.051812,-0.0067857,0,0.0038446,0,0,0,0.032945,0.01035,0.012988,1.884,0.018761,0.021399,4.775e-07,0.1,0.47,0
0.0056063,0.00053494,0.032923,0.010092,0.012904,0.00054381,0,0,0.050931,-0.0071684,0,0.0026964,0,0,0,0.032946,0.010069,0.012904,1.3478,0.01864,0.0216,4.9529e-07,0.11,0.47,0
0.0061116,0.00057699,0.033384,0.010379,0.013129,0.00054328,0,0,0.047393,-0.0065104,0,0.0021158,0,0,0,0.033419,0.010345,0.013129,1.2831,0.018964,0.021816,5.3371e-07,0.12,0.47,0
0.0065679,0.00058075,0.033128,0.01055,0.013104,0.001148,0,0,0.040521,-0.0051437,0,0.0038159,0,0,0,0.033239,0.01044,0.013104,2.8652,0.018927,0.021593,5.4033e-07,0.13,0.47,0
0.006935,0.00054129,0.032653,0.010012,0.0128,0.0020216,0,0,0.033056,-0.00441,0,0.0062294,0,0,0,0.032868,0.0097973,0.0128,5.0296,0.018488,0.021731,5.3579e-07,0.14,0.47,0
0.0072294,0.00048249,0.033469,0.0093984,0.01286,0.0024253,0,0,0.028634,-0.0046774,0,0.0067129,0,0,0,0.033718,0.0091493,0.01286,5.6906,0.018576,0.022943,5.8399e-07,0.15,0.47,0
0.0075049,0.00042949,0.034414,0.0090268,0.013032,0.0024332,0,0,0.027796,-0.0052071,0,0.0063264,0,0,0,0.034648,0.0087933,0.013032,5.4133,0.018824,0.024018,6.3989e-07,0.16,0.47,0
0.0077853,0.00038447,0.034746,0.0086466,0.013018,0.0023311,0,0,0.028247,-0.0056825,0,0.0060608,0,0,0,0.034954,0.0084383,0.013018,5.0621,0.018803,0.02455,6.7268e-07,0.17,0.47,0
0.0080698,0.00034181,0.034988,0.0082164,0.012961,0.0021643,0,0,0.028635,-0.0061684,0,0.0056272,0,0,0,0.035163,0.0080411,0.012961,4.5931,0.018722,0.025028,7.0196e-07,0.18,0.47,0
0.008358,0.00029944,0.035177,0.0077621,0.012882,0.0019942,0,0,0.028983,-0.0066553,0,0.005185,0,0,0,0.035322,0.0076167,0.012882,4.1408,0.018607,0.025485,7.2952e-07,0.19,0.47,0
0.0086495,0.00025638,0.035323,0.0072963,0.012786,0.0018311,0,0,0.029299,-0.0071364,0,0.0047609,0,0,0,0.035443,0.0071763,0.012786,3.7247,0.018468,0.025922,7.5541e-07,0.2,0.47,0
0.008944,0.00021209,0.035437,0.0068243,0.012678,0.0016749,0,0,0.029586,-0.0076102,0,0.0043546,0,0,0,0.035535,0.0067259,0.012678,3.3411,0.018313,0.026343,7.7973e-07,0.21,0.47,0
0.0092412,0.00016623,0.035524,0.0063479,0.012562,0.0015239,0,0,0.029851,-0.0080778,0,0.0039621,0,0,0,0.035604,0.0062679,0.012562,2.9842,0.018145,0.026751,8.0274e-07,0.22,0.47,0
0.009541,0.00011858,0.035592,0.0058679,0.012438,0.0013771,0,0,0.030101,-0.0085413,0,0.0035803,0,0,0,0.035657,0.0058037,0.012438,2.6492,0.017966,0.027151,8.247e-07,0.23,0.47,0
0.0098432,6.8979e-05,0.035646,0.0053843,0.012309,0.0012338,0,0,0.030338,-0.0090023,0,0.0032078,0,0,0,0.035697,0.0053336,0.012309,2.333,0.01778,0.027546,8.4587e-07,0.24,0.47,0
0.010148,1.7348e-05,0.035689,0.0048973,0.012176,0.0010938,0,0,0.030567,-0.0094622,0,0.0028439,0,0,0,0.035728,0.0048581,0.012176,2.034,0.017587,0.02794,8.6643e-07,0.25,0.47,0
0.010455,-3.636e-05,0.035724,0.0044071,0.012039,0.00095722,0,0,0.03079,-0.009922,0,0.0024888,0,0,0,0.035754,0.0043775,0.012039,1.7511,0.01739,0.028334,8.8652e-07,0.26,0.47,0
0.010764,-9.2146e-05,0.035753,0.0039141,0.0119,0.00082426,0,0,0.031009,-0.010382,0,0.0021431,0,0,0,0.035775,0.0038925,0.0119,1.4839,0.017189,0.028729,9.0623e-07,0.27,0.47,0
0.011075,-0.00014997,0.035778,0.0034193,0.011759,0.00069522,0,0,0.031225,-0.010842,0,0.0018076,0,0,0,0.035794,0.0034041,0.011759,1.232,0.016986,0.029125,9.256e-07,0.28,0.47,0
0.011388,-0.00020977,0.0358,0.0029241,0.011617,0.00057039,0,0,0.031438,-0.011301,0,0.001483,0,0,0,0.03581,0.0029139,0.011617,0.99534,0.01678,0.029523,9.4462e-07,0.29,0.47,0
0.011704,-0.00027144,0.035819,0.0024301,0.011475,0.00045007,0,0,0.031648,-0.011758,0,0.0011702,0,0,0,0.035826,0.0024237,0.011475,0.77366,0.016575,0.029922,9.6323e-07,0.3,0.47,0
0.012021,-0.00033485,0.035836,0.0019394,0.011333,0.00033452,0,0,0.031854,-0.012211,0,0.00086975,0,0,0,0.03584,0.0019359,0.011333,0.56677,0.016369,0.030318,9.8134e-07,0.31,0.47,0
0.012341,-0.00039985,0.03585,0.0014548,0.011192,0.00022408,0,0,0.032056,-0.012658,0,0.0005826,0,0,0,0.035852,0.0014532,0.011192,0.3745,0.016166,0.030711,9.9883e-07,0.32,0.47,0
0.012662,-0.00046624,0.035862,0.00097898,0.011052,0.00011921,0,0,0.032253,-0.013095,0,0.00030996,0,0,0,0.035863,0.00097842,0.011052,0.19693,0.015965,0.031097,1.0156e-06,0.33,0.47,0
0.012986,-0.0005338,0.035871,0.00051505,0.010916,2.07e-05,0,0,0.032442,-0.013521,0,5.382e-05,0,0,0,0.035871,0.00051491,0.010916,0.034524,0.015767,0.031473,1.0314e-06,0.34,0.47,0
0.013311,-0.00060228,0.035876,6.6271e-05,0.010783,-7.0236e-05,0,0,0.032621,-0.013931,0,-0.00018261,0,0,0,0.035876,6.603e-05,0.010783,-0.11154,0.015575,0.031835,1.0461e-06,0.35,0.47,0
0.013638,-0.00067138,0.035877,-0.00036407,0.010654,-0.00015175,0,0,0.03279,-0.014323,0,-0.00039455,0,0,0,0.035878,-0.00036478,0.010654,-0.23922,0.015389,0.032181,1.0596e-06,0.36,0.47,0
0.013967,-0.00074074,0.035872,-0.00077271,0.01053,-0.00022129,0,0,0.032945,-0.014693,0,-0.00057535,0,0,0,0.035874,-0.0007741,0.01053,-0.34544,0.01521,0.032505,1.0717e-06,0.37,0.47,0
0.014297,-0.00080992,0.035862,-0.0011565,0.010412,-0.00027562,0,0,0.033085,-0.015039,0,-0.00071661,0,0,0,0.035864,-0.0011586,0.010412,-0.42618,0.015039,0.032805,1.0822e-06,0.38,0.47,0
0.014629,-0.00087844,0.035844,-0.0015127,0.010299,-0.000311,0,0,0.033208,-0.015356,0,-0.00080861,0,0,0,0.035846,-0.0015153,0.010299,-0.47672,0.014877,0.033077,1.091e-06,0.39,0.47,0
0.014961,-0.00094573,0.035817,-0.001839,0.010193,-0.00032358,0,0,0.033311,-0.015642,0,-0.00084131,0,0,0,0.03582,-0.0018418,0.010193,-0.49219,0.014724,0.033317,1.0978e-06,0.4,0.47,0
0.015295,-0.0010112,0.03578,-0.0021341,0.010094,-0.00030992,0,0,0.033392,-0.015896,0,-0.0008058,0,0,0,0.035782,-0.0021366,0.010094,-0.4683,0.01458,0.033521,1.1025e-06,0.41,0.47,0
0.015629,-0.001074,0.03573,-0.0023978,0.0099996,-0.0002677,0,0,0.033449,-0.016117,0,-0.00069603,0,0,0,0.035732,-0.0023997,0.0099996,-0.4023,0.014444,0.033689,1.1049e-06,0.42,0.47,0
0.015964,-0.0011336,0.035663,-0.0026322,0.0099094,-0.00019631,0,0,0.03348,-0.016304,0,-0.00051039,0,0,0,0.035665,-0.0026334,0.0099094,-0.29373,0.014314,0.033819,1.1049e-06,0.43,0.47,0
0.016299,-0.0011891,0.035579,-0.0028423,0.0098209,-9.6514e-05,0,0,0.033485,-0.016462,0,-0.00025094,0,0,0,0.035579,-0.0028428,0.0098209,-0.14393,0.014186,0.033912,1.1025e-06,0.44,0.47,0
0.016633,-0.00124,0.03548,-0.0030407,0.0097318,3.1566e-05,0,0,0.033473,-0.016604,0,8.2071e-05,0,0,0,0.03548,-0.0030412,0.0097318,0.046916,0.014057,0.033986,1.0985e-06,0.45,0.47,0
0.016968,-0.0012853,0.035388,-0.0032651,0.0096369,0.00019114,0,0,0.033476,-0.016773,0,0.00049697,0,0,0,0.035389,-0.0032666,0.0096369,0.28289,0.01392,0.034088,1.0958e-06,0.46,0.47,0
0.017303,-0.0013243,0.035337,-0.0036029,0.0095201,0.0003846,0,0,0.033562,-0.01706,0,0.00099995,0,0,0,0.035341,-0.0036074,0.0095201,0.56427,0.013751,0.034323,1.0994e-06,0.47,0.47,0
0.017639,-0.0013564,0.035344,-0.0029253,0.0097258,0.00059873,0,0,0.037114,-0.017595,0,0.001861,0,0,0,0.035355,-0.002936,0.0097258,0.9187,0.014048,0.033812,1.0751e-06,0.48,0.47,0
0.018045,-0.0013752,0.035424,3.6033e-05,0.010638,0.00079552,0,0,0.047527,-0.018595,0,0.0032966,0,0,0,0.035444,1.5943e-05,0.010638,1.3374,0.015366,0.031545,9.8963e-07,0.49,0.47,0
0.01859,-0.0013743,0.035576,0.0029221,0.011549,0.00093774,0,0,0.058228,-0.020133,0,0.0046519,0,0,0,0.035604,0.0028938,0.011549,1.6647,0.016682,0.02938,9.198e-07,0.5,0.47,0
0.01921,-0.0013591,0.035738,0.0033003,0.011711,0.0010218,0,0,0.062469,-0.021869,0,0.0053135,0,0,0,0.03577,0.0032677,0.011711,1.8008,0.016917,0.029212,9.287e-07,0.51,0.47,0
0.019839,-0.0013363,0.035854,0.0024897,0.011503,0.0010675,0,0,0.063312,-0.023435,0,0.0055509,0,0,0,0.035888,0.0024555,0.011503,1.8301,0.016616,0.029953,9.6734e-07,0.52,0.47,0
0.020476,-0.0013073,0.035905,0.0018159,0.011316,0.0010937,0,0,0.06393,-0.024701,0,0.005687,0,0,0,0.03594,0.0017808,0.011316,1.8356,0.016346,0.03053,9.9515e-07,0.53,0.47,0
0.021118,-0.0012731,0.035887,0.001285,0.011152,0.001111,0,0,0.064313,-0.025653,0,0.0057774,0,0,0,0.035923,0.0012493,0.011152,1.8375,0.016108,0.030935,1.0117e-06,0.54,0.47,0
0.021762,-0.0012344,0.035814,0.00087866,0.011008,0.0011227,0,0,0.064496,-0.026336,0,0.0058379,0,0,0,0.03585,0.00084243,0.011008,1.8392,0.0159,0.031193,1.019e-06,0.55,0.47,0
0.022408,-0.0011917,0.035703,0.00057353,0.010883,0.0011277,0,0,0.064531,-0.026804,0,0.0058638,0,0,0,0.035739,0.0005371,0.010883,1.8372,0.01572,0.031337,1.0193e-06,0.56,0.47,0
0.023053,-0.0011458,0.035568,0.00034831,0.010775,0.0011243,0,0,0.064463,-0.027109,0,0.0058465,0,0,0,0.035605,0.00031214,0.010775,1.8271,0.015564,0.031397,1.0149e-06,0.57,0.47,0
0.023697,-0.0010972,0.035423,0.00018503,0.010683,0.0011116,0,0,0.064326,-0.027294,0,0.0057801,0,0,0,0.035459,0.00014966,0.010683,1.8055,0.01543,0.031397,1.0075e-06,0.58,0.47,0
0.024339,-0.0010464,0.035276,6.9013e-05,0.010603,0.0010889,0,0,0.064148,-0.02739,0,0.0056623,0,0,0,0.03531,3.5022e-05,0.010603,1.7704,0.015316,0.031356,9.9836e-07,0.59,0.47,0
0.02498,-0.0009943,0.035131,-1.1545e-05,0.010536,0.0010566,0,0,0.063947,-0.027423,0,0.0054943,0,0,0,0.035163,-4.3611e-05,0.010536,1.721,0.015218,0.031288,9.8832e-07,0.6,0.47,0
0.025618,-0.00094132,0.034992,-6.6062e-05,0.010478,0.0010153,0,0,0.063738,-0.027414,0,0.0052795,0,0,0,0.035022,-9.5744e-05,0.010478,1.6578,0.015135,0.031205,9.7805e-07,0.61,0.47,0
0.026255,-0.00088806,0.034863,-0.00010202,0.010428,0.00096602,0,0,0.06353,-0.027379,0,0.0050233,0,0,0,0.03489,-0.00012897,0.010428,1.5817,0.015063,0.031114,9.6797e-07,0.62,0.47,0
0.026889,-0.00083503,0.034743,-0.00012533,0.010385,0.00091001,0,0,0.06333,-0.027328,0,0.004732,0,0,0,0.034767,-0.00014931,0.010385,1.4943,0.015001,0.031021,9.584e-07,0.63,0.47,0
0.027521,-0.00078271,0.034634,-0.0001406,0.010348,0.00084858,0,0,0.063143,-0.02727,0,0.0044126,0,0,0,0.034655,-0.00016152,0.010348,1.3973,0.014947,0.030931,9.4951e-07,0.64,0.47,0
0.028152,-0.00073147,0.034535,-0.00015139,0.010315,0.00078312,0,0,0.062973,-0.027213,0,0.0040722,0,0,0,0.034553,-0.00016925,0.010315,1.2929,0.0149,0.030847,9.4144e-07,0.65,0.47,0
0.028781,-0.00068167,0.034448,-0.00016037,0.010286,0.00071496,0,0,0.06282,-0.027161,0,0.0037178,0,0,0,0.034463,-0.0001753,0.010286,1.1831,0.014858,0.030771,9.3424e-07,0.66,0.47,0
0.029408,-0.00063357,0.034371,-0.00016951,0.01026,0.0006454,0,0,0.062687,-0.027118,0,0.0033561,0,0,0,0.034383,-0.00018171,0.01026,1.0702,0.01482,0.030705,9.2794e-07,0.67,0.47,0
0.030034,-0.00058741,0.034303,-0.00018019,0.010237,0.00057559,0,0,0.062572,-0.027084,0,0.0029931,0,0,0,0.034313,-0.00018992,0.010237,0.95612,0.014787,0.03065,9.2251e-07,0.68,0.47,0
0.03066,-0.00054334,0.034244,-0.00019331,0.010215,0.00050661,0,0,0.062476,-0.027062,0,0.0026344,0,0,0,0.034252,-0.00020087,0.010215,0.84271,0.014755,0.030604,9.1794e-07,0.69,0.47,0
0.031284,-0.00050148,0.034194,-0.00020942,0.010195,0.00043937,0,0,0.062397,-0.027053,0,0.0022847,0,0,0,0.0342,-0.00021512,0.010195,0.73164,0.014727,0.030569,9.1416e-07,0.7,0.47,0
0.031908,-0.00046192,0.034151,-0.00022874,0.010177,0.00037465,0,0,0.062334,-0.027054,0,0.0019482,0,0,0,0.034156,-0.00023291,0.010177,0.62432,0.0147,0.030544,9.1112e-07,0.71,0.47,0
0.032531,-0.00042468,0.034115,-0.00025129,0.010159,0.00031308,0,0,0.062286,-0.027067,0,0.001628,0,0,0,0.034118,-0.00025421,0.010159,0.52195,0.014674,0.030528,9.0874e-07,0.72,0.47,0
0.033153,-0.00038978,0.034085,-0.00027692,0.010142,0.00025516,0,0,0.062251,-0.02709,0,0.0013268,0,0,0,0.034087,-0.00027887,0.010142,0.42546,0.01465,0.03052,9.0695e-07,0.73,0.47,0
0.033776,-0.00035719,0.03406,-0.00030533,0.010127,0.00020126,0,0,0.062228,-0.027123,0,0.0010466,0,0,0,0.034062,-0.00030656,0.010127,0.33557,0.014627,0.03052,9.0568e-07,0.74,0.47,0
0.034398,-0.00032687,0.03404,-0.00033619,0.010111,0.00015165,0,0,0.062215,-0.027163,0,0.00078857,0,0,0,0.034041,-0.0003369,0.010111,0.25278,0.014605,0.030525,9.0486e-07,0.75,0.47,0
0.03502,-0.00029874,0.034024,-0.00036908,0.010096,0.00010648,0,0,0.062211,-0.02721,0,0.00055368,0,0,0,0.034024,-0.00036944,0.010096,0.17741,0.014584,0.030537,9.0443e-07,0.76,0.47,0
0.035642,-0.00027274,0.03401,-0.00040358,0.010082,6.5814e-05,0,0,0.062214,-0.027263,0,0.00034223,0,0,0,0.034011,-0.00040373,0.010082,0.1096,0.014563,0.030552,9.0432e-07,0.77,0.47,0
0.036264,-0.00024878,0.034,-0.00043925,0.010068,2.9655e-05,0,0,0.062223,-0.02732,0,0.00015421,0,0,0,0.034,-0.00043929,0.010068,0.04936,0.014543,0.030571,9.0446e-07,0.78,0.47,0
0.036887,-0.00022675,0.033992,-0.00047566,0.010055,-2.0694e-06,0,0,0.062237,-0.02738,0,-1.0761e-05,0,0,0,0.033992,-0.00047568,0.010055,-0.0034186,0.014524,0.030593,9.0482e-07,0.79,0.47,0
0.037509,-0.00020657,0.033986,-0.00051243,0.010042,-2.9479e-05,0,0,0.062254,-0.027442,0,-0.00015329,0,0,0,0.033986,-0.00051246,0.010042,-0.04894,0.014505,0.030618,9.0534e-07,0.8,0.47,0
0.038132,-0.00018811,0.033982,-0.00054915,0.01003,-5.2732e-05,0,0,0.062275,-0.027505,0,-0.00027421,0,0,0,0.033982,-0.00054924,0.01003,-0.087482,0.014487,0.030643,9.0599e-07,0.81,0.47,0
0.038754,-0.0001713,0.033978,-0.00058549,0.010018,-7.202e-05,0,0,0.062297,-0.027569,0,-0.00037451,0,0,0,0.033978,-0.00058565,0.010018,-0.11937,0.01447,0.030669,9.0671e-07,0.82,0.47,0
0.039378,-0.00015601,0.033976,-0.00062114,0.010006,-8.7555e-05,0,0,0.06232,-0.027632,0,-0.00045529,0,0,0,0.033976,-0.00062137,0.010006,-0.14499,0.014454,0.030696,9.075e-07,0.83,0.47,0
0.040001,-0.00014215,0.033974,-0.00065581,0.0099955,-9.9565e-05,0,0,0.062345,-0.027693,0,-0.00051774,0,0,0,0.033975,-0.0006561,0.0099955,-0.16472,0.014438,0.030722,9.0832e-07,0.84,0.47,0
0.040624,-0.00012963,0.033973,-0.00068925,0.0099852,-0.00010829,0,0,0.062369,-0.027754,0,-0.00056309,0,0,0,0.033974,-0.00068959,0.0099852,-0.17899,0.014423,0.030748,9.0914e-07,0.85,0.47,0
0.041248,-0.00011835,0.033973,-0.00072125,0.0099754,-0.00011396,0,0,0.062393,-0.027811,0,-0.0005926,0,0,0,0.033973,-0.00072163,0.0099754,-0.1882,0.014409,0.030774,9.0996e-07,0.86,0.47,0
0.041872,-0.00010823,0.033972,-0.00075163,0.0099662,-0.00011683,0,0,0.062416,-0.027866,0,-0.00060753,0,0,0,0.033973,-0.00075202,0.0099662,-0.19277,0.014396,0.030798,9.1075e-07,0.87,0.47,0
0.042497,-9.9186e-05,0.033972,-0.00078021,0.0099576,-0.00011714,0,0,0.062438,-0.027918,0,-0.00060913,0,0,0,0.033973,-0.0007806,0.0099576,-0.19312,0.014383,0.030821,9.1151e-07,0.88,0.47,0
0.043121,-9.114e-05,0.033972,-0.00080687,0.0099496,-0.00011512,0,0,0.062459,-0.027967,0,-0.00059863,0,0,0,0.033973,-0.00080725,0.0099496,-0.18965,0.014372,0.030842,9.1223e-07,0.89,0.47,0
0.043746,-8.4025e-05,0.033972,-0.00083149,0.0099423,-0.00011101,0,0,0.062478,-0.028012,0,-0.00057723,0,0,0,0.033973,-0.00083184,0.0099423,-0.18274,0.014361,0.030862,9.1289e-07,0.9,0.47,0
0.044371,-7.7777e-05,0.033973,-0.00085398,0.0099356,-0.00010502,0,0,0.062496,-0.028053,0,-0.00054608,0,0,0,0.033973,-0.0008543,0.0099356,-0.17277,0.014351,0.03088,9.135e-07,0.91,0.47,0
0.044996,-7.2338e-05,0.033973,-0.00087426,0.0099295,-9.7368e-05,0,0,0.062512,-0.02809,0,-0.00050631,0,0,0,0.033973,-0.00087454,0.0099295,-0.1601,0.014343,0.030896,9.1405e-07,0.92,0.47,0
0.045621,-6.7658e-05,0.033973,-0.00089228,0.0099242,-8.827e-05,0,0,0.062527,-0.028123,0,-0.000459,0,0,0,0.033973,-0.0008925,0.0099242,-0.14506,0.014335,0.030911,9.1454e-07,0.93,0.47,0
0.046246,-6.3692e-05,0.033973,-0.00090797,0.0099195,-7.7922e-05,0,0,0.062539,-0.028151,0,-0.00040519,0,0,0,0.033973,-0.00090815,0.0099195,-0.128,0.014328,0.030924,9.1496e-07,0.94,0.47,0
0.046872,-6.0401e-05,0.033973,-0.00092131,0.0099156,-6.6517e-05,0,0,0.06255,-0.028176,0,-0.00034589,0,0,0,0.033973,-0.00092143,0.0099156,-0.10922,0.014322,0.030934,9.1532e-07,0.95,0.47,0
0.047497,-5.7752e-05,0.033973,-0.00093225,0.0099123,-5.4242e-05,0,0,0.062559,-0.028196,0,-0.00028206,0,0,0,0.033973,-0.00093234,0.0099123,-0.089039,0.014318,0.030943,9.1562e-07,0.96,0.47,0
0.048123,-5.572e-05,0.033973,-0.00094079,0.0099098,-4.1278e-05,0,0,0.062565,-0.028211,0,-0.00021465,0,0,0,0.033973,-0.00094084,0.0099098,-0.067742,0.014314,0.03095,9.1585e-07,0.97,0.47,0
0.048749,-5.4283e-05,0.033973,-0.0009469,0.009908,-2.7802e-05,0,0,0.06257,-0.028223,0,-0.00014457,0,0,0,0.033973,-0.00094692,0.009908,-0.045617,0.014311,0.030955,9.1601e-07,0.98,0.47,0
0.049374,-5.3427e-05,0.033973,-0.00095057,0.0099069,-1.2621e-05,0,0,0.062573,-0.028229,0,-6.5631e-05,0,0,0,0.033973,-0.00095057,0.0099069,-0.020707,0.01431,0.030958,9.1611e-07,0.99,0.47,0
0.049687,-5.3142e-05,0.033973,-0.00095179,0.0099065,-4.2856e-06,0,0,0.062574,-0.028232,0,-2.2285e-05,0,0,0,0.033973,-0.00095179,0.0099065,-0.0070305,0.014309,0.030959,9.1614e-07,1,0.47,0
0.00024552,4.588e-06,0.033042,0.014034,0.014123,0.00018759,0,0,0.049191,-0.00023152,0,0.00097548,0,0,0,0.033044,0.014032,0.014123,0.56457,0.0204,0.018967,3.5045e-07,0,0.48,0
0.00049191,1.1041e-05,0.033059,0.013901,0.014088,0.00021892,0,0,0.049325,-0.00048614,0,0.0011384,0,0,0,0.033062,0.013898,0.014088,0.6526,0.020349,0.01907,3.5607e-07,0.01,0.48,0
0.00098649,2.7764e-05,0.033118,0.013624,0.014023,0.0003041,0,0,0.049648,-0.001036,0,0.0015813,0,0,0,0.033123,0.013619,0.014023,0.89022,0.020255,0.019306,3.6906e-07,0.02,0.48,0
0.0014849,5.2232e-05,0.033201,0.013318,0.013956,0.00041531,0,0,0.050038,-0.0016578,0,0.0021596,0,0,0,0.03321,0.013309,0.013956,1.1927,0.020158,0.019586,3.8451e-07,0.03,0.48,0
0.0019873,8.4525e-05,0.033277,0.012979,0.013877,0.00053117,0,0,0.050442,-0.0023354,0,0.0027621,0,0,0,0.033292,0.012964,0.013877,1.4946,0.020044,0.019888,4.0112e-07,0.04,0.48,0
0.0024937,0.00012445,0.03334,0.01261,0.013785,0.00064713,0,0,0.050843,-0.0030552,0,0.0033651,0,0,0,0.03336,0.012589,0.013785,1.7833,0.019911,0.0202,4.1835e-07,0.05,0.48,0
0.0030041,0.00017152,0.033379,0.012217,0.013679,0.00075898,0,0,0.051222,-0.0038013,0,0.0039467,0,0,0,0.033407,0.012189,0.013679,2.0488,0.019758,0.020514,4.3548e-07,0.06,0.48,0
0.0035181,0.00022497,0.033387,0.011806,0.013558,0.00086302,0,0,0.051556,-0.0045552,0,0.0044877,0,0,0,0.033422,0.011771,0.013558,2.2842,0.019584,0.020816,4.5168e-07,0.07,0.48,0
0.0040352,0.00028356,0.033349,0.011378,0.013418,0.00095404,0,0,0.051821,-0.0053045,0,0.004961,0,0,0,0.033391,0.011336,0.013418,2.4798,0.019382,0.021091,4.6603e-07,0.08,0.48,0
0.0045546,0.00034537,0.033248,0.010934,0.013254,0.0010173,0,0,0.051982,-0.0060337,0,0.0052901,0,0,0,0.033294,0.010887,0.013254,2.6031,0.019145,0.021323,4.7726e-07,0.09,0.48,0
0.0050749,0.00040706,0.033044,0.010481,0.013057,0.0010301,0,0,0.051964,-0.0066981,0,0.0053567,0,0,0,0.033092,0.010433,0.013057,2.6055,0.018861,0.021468,4.8265e-07,0.1,0.48,0
0.0055938,0.00046357,0.032717,0.01007,0.012836,0.00095534,0,0,0.051691,-0.007192,0,0.0049678,0,0,0,0.032762,0.010025,0.012836,2.4036,0.018541,0.021471,4.7932e-07,0.11,0.48,0
0.0061087,0.00050743,0.032645,0.0099796,0.012787,0.00079169,0,0,0.050579,-0.0071818,0,0.0040224,0,0,0,0.032681,0.0099427,0.012787,1.9724,0.01847,0.021459,4.8278e-07,0.12,0.48,0
0.0066093,0.00052266,0.032544,0.01,0.012763,0.00087598,0,0,0.046024,-0.0063304,0,0.0038596,0,0,0,0.032598,0.0099464,0.012763,2.2229,0.018436,0.021387,4.8842e-07,0.13,0.48,0
0.0070355,0.00049428,0.032218,0.0096035,0.012547,0.001348,0,0,0.036914,-0.0051758,0,0.0047563,0,0,0,0.032325,0.0094969,0.012547,3.4315,0.018123,0.021475,4.9044e-07,0.14,0.48,0
0.0073487,0.00043703,0.032648,0.0091815,0.012549,0.00176,0,0,0.029054,-0.0046762,0,0.005053,0,0,0,0.032795,0.009035,0.012549,4.2718,0.018126,0.022216,5.2352e-07,0.15,0.48,0
0.0076152,0.00037983,0.033533,0.0089937,0.012758,0.0019376,0,0,0.027007,-0.0048934,0,0.0050378,0,0,0,0.033692,0.0088339,0.012758,4.47,0.018428,0.023148,5.7722e-07,0.16,0.48,0
0.0078888,0.00032973,0.034135,0.0087246,0.012858,0.0019676,0,0,0.027661,-0.0053734,0,0.0051158,0,0,0,0.034291,0.0085691,0.012858,4.3952,0.018573,0.023869,6.2383e-07,0.17,0.48,0
0.0081684,0.00028183,0.034567,0.0083297,0.012869,0.0018957,0,0,0.028208,-0.0059012,0,0.0049289,0,0,0,0.034706,0.0081912,0.012869,4.1099,0.018589,0.024513,6.6502e-07,0.18,0.48,0
0.008453,0.00023431,0.034874,0.0078875,0.012828,0.0017949,0,0,0.028659,-0.0064232,0,0.0046667,0,0,0,0.034994,0.0077672,0.012828,3.7893,0.01853,0.025083,7.0075e-07,0.19,0.48,0
0.0087416,0.00018624,0.035094,0.0074272,0.012756,0.0016821,0,0,0.029039,-0.006928,0,0.0043734,0,0,0,0.035197,0.0073244,0.012756,3.468,0.018426,0.025593,7.3205e-07,0.2,0.48,0
0.0090338,0.00013708,0.035255,0.0069577,0.012664,0.0015622,0,0,0.029369,-0.0074181,0,0.0040618,0,0,0,0.035342,0.0068711,0.012664,3.1523,0.018292,0.026063,7.6002e-07,0.21,0.48,0
0.009329,8.6449e-05,0.035375,0.0064824,0.012557,0.0014378,0,0,0.029663,-0.0078974,0,0.0037384,0,0,0,0.035447,0.0064105,0.012557,2.8441,0.018138,0.026504,7.8557e-07,0.22,0.48,0
0.009627,3.4095e-05,0.035466,0.0060024,0.01244,0.0013106,0,0,0.029933,-0.0083695,0,0.0034076,0,0,0,0.035524,0.0059438,0.01244,2.5442,0.01797,0.026927,8.0934e-07,0.23,0.48,0
0.0099277,-2.0163e-05,0.035535,0.0055182,0.012316,0.0011819,0,0,0.030185,-0.0088371,0,0.0030728,0,0,0,0.035582,0.0054713,0.012316,2.2534,0.01779,0.027339,8.3181e-07,0.24,0.48,0
0.010231,-7.6433e-05,0.035588,0.0050298,0.012185,0.0010527,0,0,0.030424,-0.0093024,0,0.002737,0,0,0,0.035625,0.0049932,0.012185,1.9727,0.017601,0.027744,8.533e-07,0.25,0.48,0
0.010536,-0.00013477,0.03563,0.0045375,0.01205,0.00092417,0,0,0.030654,-0.0097666,0,0.0024028,0,0,0,0.035658,0.0045097,0.01205,1.703,0.017406,0.028146,8.7404e-07,0.26,0.48,0
0.010844,-0.00019518,0.035663,0.0040417,0.011911,0.00079729,0,0,0.030877,-0.010231,0,0.0020729,0,0,0,0.035683,0.0040213,0.011911,1.4453,0.017205,0.028547,8.9416e-07,0.27,0.48,0
0.011154,-0.00025764,0.035688,0.0035435,0.01177,0.00067297,0,0,0.031095,-0.010694,0,0.0017497,0,0,0,0.035703,0.0035291,0.01177,1.2006,0.017001,0.028947,9.1373e-07,0.28,0.48,0
0.011466,-0.00032205,0.035708,0.0030442,0.011626,0.00055202,0,0,0.031307,-0.011156,0,0.0014352,0,0,0,0.035718,0.0030346,0.011626,0.96958,0.016793,0.029347,9.3276e-07,0.29,0.48,0
0.01178,-0.0003883,0.035723,0.0025456,0.011481,0.00043513,0,0,0.031515,-0.011616,0,0.0011313,0,0,0,0.035729,0.0025397,0.011481,0.75281,0.016583,0.029745,9.5118e-07,0.3,0.48,0
0.012096,-0.00045625,0.035733,0.0020501,0.011335,0.00032291,0,0,0.031718,-0.01207,0,0.00083955,0,0,0,0.035737,0.0020469,0.011335,0.55061,0.016373,0.030139,9.6892e-07,0.31,0.48,0
0.012414,-0.00052572,0.035739,0.0015602,0.01119,0.00021589,0,0,0.031914,-0.012518,0,0.00056133,0,0,0,0.035741,0.0015586,0.01119,0.36317,0.016163,0.030528,9.8584e-07,0.32,0.48,0
0.012734,-0.0005965,0.03574,0.0010785,0.011046,0.00011472,0,0,0.032103,-0.012957,0,0.00029828,0,0,0,0.035741,0.0010779,0.011046,0.19078,0.015955,0.030909,1.0018e-06,0.33,0.48,0
0.013056,-0.00066832,0.035736,0.00060773,0.010903,2.0245e-05,0,0,0.032283,-0.013384,0,5.2638e-05,0,0,0,0.035737,0.0006076,0.010903,0.034025,0.015749,0.031279,1.0168e-06,0.34,0.48,0
0.01338,-0.00074092,0.035728,0.00015071,0.010764,-6.6273e-05,0,0,0.032454,-0.013797,0,-0.00017231,0,0,0,0.035728,0.00015049,0.010764,-0.10586,0.015547,0.031636,1.0306e-06,0.35,0.48,0
0.013705,-0.00081396,0.035715,-0.00029002,0.010627,-0.00014296,0,0,0.032613,-0.014193,0,-0.00037169,0,0,0,0.035715,-0.00029066,0.010627,-0.22677,0.015351,0.031977,1.0431e-06,0.36,0.48,0
0.014032,-0.00088705,0.035696,-0.00071199,0.010495,-0.0002072,0,0,0.032761,-0.014569,0,-0.00053871,0,0,0,0.035697,-0.00071322,0.010495,-0.32548,0.01516,0.0323,1.0543e-06,0.37,0.48,0
0.014361,-0.00095974,0.035672,-0.0011128,0.010368,-0.00025561,0,0,0.032896,-0.014925,0,-0.0006646,0,0,0,0.035674,-0.0011146,0.010368,-0.3977,0.014976,0.032601,1.064e-06,0.38,0.48,0
0.01469,-0.0010315,0.035643,-0.0014903,0.010246,-0.00028423,0,0,0.033016,-0.015257,0,-0.00073899,0,0,0,0.035645,-0.0014925,0.010246,-0.43827,0.014799,0.032879,1.0723e-06,0.39,0.48,0
0.015021,-0.0011018,0.035607,-0.001842,0.010129,-0.0002888,0,0,0.033121,-0.015563,0,-0.00075087,0,0,0,0.035609,-0.0018442,0.010129,-0.44172,0.014631,0.033131,1.0788e-06,0.4,0.48,0
0.015353,-0.0011698,0.035562,-0.002166,0.010019,-0.00026534,0,0,0.033207,-0.01584,0,-0.00068989,0,0,0,0.035564,-0.0021679,0.010019,-0.40297,0.014472,0.033353,1.0836e-06,0.41,0.48,0
0.015685,-0.001235,0.035508,-0.0024609,0.009914,-0.00021073,0,0,0.033272,-0.016087,0,-0.0005479,0,0,0,0.035509,-0.0024622,0.009914,-0.31812,0.01432,0.033542,1.0864e-06,0.42,0.48,0
0.016018,-0.0012966,0.035438,-0.0027268,0.0098135,-0.00012334,0,0,0.033312,-0.016302,0,-0.00032069,0,0,0,0.035439,-0.0027274,0.0098135,-0.18536,0.014175,0.033694,1.0869e-06,0.43,0.48,0
0.016351,-0.0013538,0.035352,-0.0029663,0.0097158,-4.3475e-06,0,0,0.033327,-0.016487,0,-1.1304e-05,0,0,0,0.035353,-0.0029667,0.0097158,-0.0067179,0.014034,0.033812,1.0851e-06,0.44,0.48,0
0.016685,-0.0014062,0.035253,-0.0031895,0.009619,0.0001394,0,0,0.033324,-0.016651,0,0.00036244,0,0,0,0.035254,-0.0031905,0.009619,0.2075,0.013894,0.033906,1.0817e-06,0.45,0.48,0
0.017018,-0.0014533,0.03516,-0.0034308,0.0095187,0.00029183,0,0,0.033333,-0.016834,0,0.00075875,0,0,0,0.035162,-0.0034335,0.0095187,0.43279,0.013749,0.034022,1.0792e-06,0.46,0.48,0
0.017351,-0.0014954,0.035106,-0.0037738,0.0093996,0.00043124,0,0,0.033418,-0.017125,0,0.0011212,0,0,0,0.035111,-0.0037788,0.0093996,0.63452,0.013577,0.034258,1.0825e-06,0.47,0.48,0
0.017686,-0.0015328,0.035111,-0.0030849,0.0096077,0.00054521,0,0,0.036942,-0.017652,0,0.0016506,0,0,0,0.035119,-0.0030933,0.0096077,0.83201,0.013878,0.033729,1.0577e-06,0.48,0.48,0
0.01809,-0.0015615,0.035187,-9.876e-05,0.010527,0.00064338,0,0,0.047276,-0.018631,0,0.0026214,0,0,0,0.0352,-0.00011171,0.010527,1.0785,0.015205,0.03143,9.7258e-07,0.49,0.48,0
0.018632,-0.0015755,0.035336,0.0028132,0.011445,0.00074664,0,0,0.057897,-0.02014,0,0.0036994,0,0,0,0.035355,0.002795,0.011445,1.3302,0.016532,0.029237,9.0309e-07,0.5,0.48,0
0.019248,-0.0015773,0.035499,0.0032114,0.011613,0.00086254,0,0,0.062104,-0.021845,0,0.0044852,0,0,0,0.035523,0.0031878,0.011613,1.5261,0.016775,0.029055,9.1156e-07,0.51,0.48,0
0.019874,-0.0015699,0.035619,0.0024173,0.011411,0.00098044,0,0,0.062941,-0.023383,0,0.0050983,0,0,0,0.035648,0.0023881,0.011411,1.6878,0.016482,0.029793,9.498e-07,0.52,0.48,0
0.020507,-0.0015535,0.035676,0.0017593,0.011231,0.0010849,0,0,0.063558,-0.024625,0,0.0056414,0,0,0,0.035711,0.0017245,0.011231,1.829,0.016222,0.030371,9.7775e-07,0.53,0.48,0
0.021145,-0.0015289,0.035667,0.001244,0.011073,0.0011662,0,0,0.063943,-0.025556,0,0.006064,0,0,0,0.035706,0.0012044,0.011073,1.9377,0.015995,0.030778,9.9477e-07,0.54,0.48,0
0.021786,-0.001497,0.035603,0.00085303,0.010937,0.0012219,0,0,0.064131,-0.026217,0,0.0063537,0,0,0,0.035646,0.00080995,0.010937,2.0115,0.015797,0.031037,1.0025e-06,0.55,0.48,0
0.022427,-0.0014591,0.035501,0.00056302,0.010819,0.0012536,0,0,0.064173,-0.026666,0,0.0065186,0,0,0,0.035546,0.00051786,0.010819,2.0527,0.015628,0.031181,1.0035e-06,0.56,0.48,0
0.023069,-0.0014162,0.035378,0.00035227,0.010719,0.001264,0,0,0.064113,-0.026954,0,0.0065725,0,0,0,0.035424,0.00030643,0.010719,2.0647,0.015483,0.031241,9.9967e-07,0.57,0.48,0
0.02371,-0.0013693,0.035244,0.00020253,0.010634,0.0012558,0,0,0.063986,-0.027122,0,0.0065299,0,0,0,0.035289,0.00015728,0.010634,2.0504,0.01536,0.03124,9.929e-07,0.58,0.48,0
0.024349,-0.0013195,0.035108,9.8874e-05,0.010562,0.0012315,0,0,0.063819,-0.027204,0,0.0064038,0,0,0,0.035151,5.5298e-05,0.010562,2.0128,0.015256,0.031199,9.8438e-07,0.59,0.48,0
0.024986,-0.0012677,0.034975,2.9323e-05,0.010501,0.0011935,0,0,0.063631,-0.027227,0,0.0062063,0,0,0,0.035016,-1.1691e-05,0.010501,1.9544,0.015168,0.031132,9.7503e-07,0.6,0.48,0
0.025621,-0.0012146,0.034848,-1.5685e-05,0.01045,0.001144,0,0,0.063436,-0.02721,0,0.0059486,0,0,0,0.034886,-5.346e-05,0.01045,1.8778,0.015094,0.03105,9.6546e-07,0.61,0.48,0
0.026255,-0.0011609,0.034731,-4.3716e-05,0.010406,0.0010849,0,0,0.063244,-0.027169,0,0.0056414,0,0,0,0.034765,-7.7787e-05,0.010406,1.7856,0.015031,0.030962,9.5613e-07,0.62,0.48,0
0.026886,-0.0011074,0.034623,-6.0706e-05,0.010369,0.0010182,0,0,0.063061,-0.027116,0,0.0052949,0,0,0,0.034653,-9.0809e-05,0.010369,1.6805,0.014977,0.030873,9.4733e-07,0.63,0.48,0
0.027516,-0.0010545,0.034526,-7.125e-05,0.010336,0.00094592,0,0,0.062892,-0.02706,0,0.0049188,0,0,0,0.034552,-9.7304e-05,0.010336,1.5652,0.01493,0.030788,9.3925e-07,0.64,0.48,0
0.028144,-0.0010027,0.034439,-7.884e-05,0.010308,0.00086965,0,0,0.062741,-0.027006,0,0.0045222,0,0,0,0.034461,-0.00010093,0.010308,1.4425,0.01489,0.030711,9.3201e-07,0.65,0.48,0
0.028771,-0.00095236,0.034364,-8.6063e-05,0.010283,0.00079104,0,0,0.062609,-0.02696,0,0.0041134,0,0,0,0.034382,-0.00010439,0.010283,1.3149,0.014854,0.030643,9.2566e-07,0.66,0.48,0
0.029396,-0.00090386,0.034298,-9.4758e-05,0.010261,0.00071158,0,0,0.062496,-0.026925,0,0.0037002,0,0,0,0.034313,-0.00010962,0.010261,1.1849,0.014821,0.030585,9.2022e-07,0.67,0.48,0
0.030021,-0.0008574,0.034241,-0.00010616,0.010241,0.00063257,0,0,0.062402,-0.026901,0,0.0032894,0,0,0,0.034253,-0.00011794,0.010241,1.0548,0.014792,0.030539,9.1568e-07,0.68,0.48,0
0.030644,-0.00081317,0.034193,-0.00012104,0.010222,0.00055514,0,0,0.062326,-0.026891,0,0.0028867,0,0,0,0.034202,-0.00013013,0.010222,0.92669,0.014765,0.030504,9.1198e-07,0.69,0.48,0
0.031267,-0.00077127,0.034153,-0.00013974,0.010204,0.00048025,0,0,0.062268,-0.026894,0,0.0024973,0,0,0,0.03416,-0.00014657,0.010204,0.80225,0.014739,0.030479,9.0906e-07,0.7,0.48,0
0.03189,-0.00073178,0.03412,-0.00016237,0.010187,0.00040869,0,0,0.062226,-0.026909,0,0.0021252,0,0,0,0.034125,-0.00016732,0.010187,0.68296,0.014715,0.030465,9.0687e-07,0.71,0.48,0
0.032512,-0.00069474,0.034094,-0.00018877,0.010171,0.00034107,0,0,0.062197,-0.026937,0,0.0017736,0,0,0,0.034097,-0.00019223,0.010171,0.57002,0.014692,0.03046,9.0532e-07,0.72,0.48,0
0.033134,-0.00066014,0.034072,-0.00021865,0.010156,0.00027788,0,0,0.062182,-0.026974,0,0.001445,0,0,0,0.034074,-0.00022096,0.010156,0.46431,0.01467,0.030463,9.0433e-07,0.73,0.48,0
0.033755,-0.00062794,0.034055,-0.00025161,0.010141,0.00021943,0,0,0.062177,-0.027021,0,0.0011411,0,0,0,0.034057,-0.00025306,0.010141,0.3665,0.014648,0.030473,9.0383e-07,0.74,0.48,0
0.034377,-0.00059809,0.034043,-0.00028718,0.010127,0.00016594,0,0,0.062182,-0.027076,0,0.00086289,0,0,0,0.034044,-0.00028803,0.010127,0.27698,0.014627,0.030489,9.0374e-07,0.75,0.48,0
0.034999,-0.0005705,0.034033,-0.00032487,0.010113,0.0001175,0,0,0.062194,-0.027137,0,0.00061099,0,0,0,0.034034,-0.0003253,0.010113,0.19598,0.014607,0.03051,9.0399e-07,0.76,0.48,0
0.035621,-0.00054509,0.034027,-0.00036415,0.010099,7.4114e-05,0,0,0.062213,-0.027204,0,0.00038539,0,0,0,0.034027,-0.00036433,0.010099,0.12351,0.014587,0.030535,9.0452e-07,0.77,0.48,0
0.036243,-0.00052176,0.034022,-0.00040453,0.010085,3.5722e-05,0,0,0.062236,-0.027274,0,0.00018575,0,0,0,0.034022,-0.00040458,0.010085,0.059485,0.014568,0.030563,9.0526e-07,0.78,0.48,0
0.036866,-0.00050039,0.03402,-0.00044552,0.010072,2.1918e-06,0,0,0.062263,-0.027346,0,1.1398e-05,0,0,0,0.03402,-0.00044554,0.010072,0.0036736,0.014549,0.030594,9.0617e-07,0.79,0.48,0
0.037489,-0.00048088,0.034018,-0.00048669,0.010059,-2.6653e-05,0,0,0.062293,-0.02742,0,-0.0001386,0,0,0,0.034018,-0.00048672,0.010059,-0.044232,0.01453,0.030625,9.072e-07,0.8,0.48,0
0.038112,-0.00046312,0.034018,-0.00052762,0.010047,-5.1026e-05,0,0,0.062324,-0.027494,0,-0.00026534,0,0,0,0.034018,-0.0005277,0.010047,-0.084607,0.014513,0.030658,9.0831e-07,0.81,0.48,0
0.038735,-0.00044699,0.034019,-0.00056794,0.010035,-7.1167e-05,0,0,0.062357,-0.027568,0,-0.00037007,0,0,0,0.034019,-0.00056809,0.010035,-0.11787,0.014495,0.030691,9.0946e-07,0.82,0.48,0
0.039359,-0.00043238,0.03402,-0.00060732,0.010024,-8.7332e-05,0,0,0.06239,-0.027641,0,-0.00045413,0,0,0,0.03402,-0.00060754,0.010024,-0.14449,0.014479,0.030724,9.1063e-07,0.83,0.48,0
0.039983,-0.00041918,0.034021,-0.00064547,0.010013,-9.979e-05,0,0,0.062422,-0.027711,0,-0.00051891,0,0,0,0.034021,-0.00064576,0.010013,-0.16492,0.014463,0.030756,9.1178e-07,0.84,0.48,0
0.040607,-0.0004073,0.034023,-0.00068214,0.010002,-0.00010881,0,0,0.062454,-0.027779,0,-0.00056583,0,0,0,0.034023,-0.00068248,0.010002,-0.17963,0.014448,0.030787,9.1292e-07,0.85,0.48,0
0.041232,-0.00039664,0.034025,-0.0007171,0.0099923,-0.00011467,0,0,0.062484,-0.027844,0,-0.00059631,0,0,0,0.034025,-0.00071748,0.0099923,-0.18911,0.014433,0.030817,9.1401e-07,0.86,0.48,0
0.041857,-0.0003871,0.034026,-0.00075018,0.0099829,-0.00011764,0,0,0.062513,-0.027906,0,-0.00061174,0,0,0,0.034027,-0.00075058,0.0099829,-0.19382,0.01442,0.030845,9.1504e-07,0.87,0.48,0
0.042482,-0.0003786,0.034028,-0.00078123,0.0099741,-0.00011798,0,0,0.062541,-0.027964,0,-0.0006135,0,0,0,0.034029,-0.00078163,0.0099741,-0.19419,0.014407,0.030871,9.1601e-07,0.88,0.48,0
0.043108,-0.00037107,0.03403,-0.00081011,0.0099659,-0.00011594,0,0,0.062566,-0.028018,0,-0.00060291,0,0,0,0.03403,-0.00081049,0.0099659,-0.19067,0.014395,0.030896,9.1692e-07,0.89,0.48,0
0.043734,-0.00036442,0.034031,-0.00083672,0.0099583,-0.00011178,0,0,0.062589,-0.028067,0,-0.00058124,0,0,0,0.034032,-0.00083708,0.0099583,-0.18367,0.014384,0.030918,9.1774e-07,0.9,0.48,0
0.04436,-0.00035861,0.034032,-0.00086097,0.0099515,-0.00010572,0,0,0.062611,-0.028112,0,-0.00054972,0,0,0,0.034033,-0.00086129,0.0099515,-0.17359,0.014374,0.030939,9.1849e-07,0.91,0.48,0
0.044986,-0.00035356,0.034034,-0.0008828,0.0099453,-9.7984e-05,0,0,0.06263,-0.028153,0,-0.00050952,0,0,0,0.034034,-0.00088308,0.0099453,-0.16079,0.014365,0.030957,9.1916e-07,0.92,0.48,0
0.045612,-0.00034922,0.034035,-0.00090216,0.0099397,-8.8798e-05,0,0,0.062647,-0.028189,0,-0.00046175,0,0,0,0.034035,-0.00090239,0.0099397,-0.14563,0.014357,0.030974,9.1975e-07,0.93,0.48,0
0.046239,-0.00034555,0.034035,-0.000919,0.0099349,-7.8362e-05,0,0,0.062661,-0.02822,0,-0.00040748,0,0,0,0.034036,-0.00091918,0.0099349,-0.12845,0.01435,0.030988,9.2026e-07,0.94,0.48,0
0.046865,-0.00034252,0.034036,-0.00093329,0.0099308,-6.6872e-05,0,0,0.062674,-0.028247,0,-0.00034773,0,0,0,0.034036,-0.00093342,0.0099308,-0.10957,0.014345,0.031,9.2069e-07,0.95,0.48,0
0.047492,-0.00034008,0.034037,-0.00094501,0.0099275,-5.4517e-05,0,0,0.062684,-0.028268,0,-0.00028349,0,0,0,0.034037,-0.00094509,0.0099275,-0.089295,0.01434,0.03101,9.2104e-07,0.96,0.48,0
0.048119,-0.00033821,0.034037,-0.00095414,0.0099249,-4.1478e-05,0,0,0.062692,-0.028285,0,-0.00021569,0,0,0,0.034037,-0.00095419,0.0099249,-0.06792,0.014336,0.031017,9.2131e-07,0.97,0.48,0
0.048746,-0.00033689,0.034037,-0.00096067,0.009923,-2.7932e-05,0,0,0.062697,-0.028297,0,-0.00014525,0,0,0,0.034037,-0.00096069,0.009923,-0.045729,0.014333,0.031023,9.2151e-07,0.98,0.48,0
0.049373,-0.0003361,0.034037,-0.00096459,0.0099219,-1.2798e-05,0,0,0.062701,-0.028305,0,-6.6548e-05,0,0,0,0.034038,-0.0009646,0.0099219,-0.020949,0.014332,0.031026,9.2162e-07,0.99,0.48,0
0.049686,-0.00033584,0.034038,-0.00096589,0.0099215,-4.5415e-06,0,0,0.062702,-0.028307,0,-2.3616e-05,0,0,0,0.034038,-0.0009659,0.0099215,-0.0074337,0.014331,0.031027,9.2166e-07,1,0.48,0
0.00024438,2.1657e-06,0.032887,0.013953,0.014052,9.508e-05,0,0,0.048971,-0.0002568,0,0.00049442,0,0,0,0.032888,0.013953,0.014052,0.28697,0.020297,0.018886,3.4593e-07,0,0.49,0
0.00048971,5.9824e-06,0.032906,0.01381,0.014015,0.00012596,0,0,0.049118,-0.00053277,0,0.00065498,0,0,0,0.032908,0.013809,0.014015,0.3759,0.020244,0.018997,3.5198e-07,0.01,0.49,0
0.00098236,1.7054e-05,0.032975,0.013517,0.013948,0.00021038,0,0,0.049472,-0.0011194,0,0.001094,0,0,0,0.032978,0.013514,0.013948,0.61608,0.020147,0.019251,3.6583e-07,0.02,0.49,0
0.0014791,3.5193e-05,0.033074,0.013203,0.013883,0.0003233,0,0,0.049897,-0.0017692,0,0.0016811,0,0,0,0.03308,0.013197,0.013883,0.92833,0.020053,0.01955,3.8218e-07,0.03,0.49,0
0.0019803,6.0623e-05,0.033171,0.012859,0.013809,0.00044567,0,0,0.050342,-0.0024701,0,0.0023175,0,0,0,0.033182,0.012849,0.013809,1.2528,0.019946,0.019871,3.998e-07,0.04,0.49,0
0.002486,9.3285e-05,0.033262,0.012491,0.013726,0.00057373,0,0,0.050794,-0.0032114,0,0.0029834,0,0,0,0.033278,0.012474,0.013726,1.5777,0.019826,0.020208,4.1836e-07,0.05,0.49,0
0.0029962,0.00013284,0.033342,0.012102,0.013633,0.00070485,0,0,0.051243,-0.0039814,0,0.0036652,0,0,0,0.033366,0.012078,0.013633,1.8955,0.019692,0.020555,4.3745e-07,0.06,0.49,0
0.0035108,0.00017864,0.033406,0.011697,0.013531,0.00083671,0,0,0.051676,-0.0047676,0,0.0043509,0,0,0,0.033439,0.011665,0.013531,2.2013,0.019545,0.020904,4.5658e-07,0.07,0.49,0
0.0040297,0.00022964,0.033449,0.011283,0.013419,0.00096526,0,0,0.052076,-0.0055552,0,0.0050194,0,0,0,0.033491,0.011241,0.013419,2.4866,0.019384,0.021246,4.7511e-07,0.08,0.49,0
0.0045524,0.0002841,0.033457,0.010867,0.013297,0.0010828,0,0,0.052415,-0.0063185,0,0.0056308,0,0,0,0.033509,0.010815,0.013297,2.7362,0.019207,0.021561,4.9191e-07,0.09,0.49,0
0.005078,0.00033933,0.033417,0.010476,0.013168,0.0011754,0,0,0.052647,-0.0069989,0,0.006112,0,0,0,0.033477,0.010415,0.013168,2.9231,0.01902,0.021816,5.0499e-07,0.1,0.49,0
0.0056053,0.0003911,0.033307,0.010151,0.013037,0.0012236,0,0,0.0527,-0.0075044,0,0.0063629,0,0,0,0.033372,0.010086,0.013037,3.0123,0.018832,0.02196,5.1141e-07,0.11,0.49,0
0.006132,0.00043294,0.033139,0.0099598,0.01293,0.0011689,0,0,0.052545,-0.007722,0,0.0060783,0,0,0,0.0332,0.0098987,0.01293,2.8667,0.018676,0.021944,5.0894e-07,0.12,0.49,0
0.0066562,0.00045311,0.03299,0.0097317,0.012817,0.0010428,0,0,0.049125,-0.0072757,0,0.0051844,0,0,0,0.033042,0.0096799,0.012817,2.5626,0.018513,0.021968,5.0764e-07,0.13,0.49,0
0.0071145,0.00043697,0.032972,0.009308,0.012684,0.0010235,0,0,0.039429,-0.0060908,0,0.0041024,0,0,0,0.033022,0.0092574,0.012684,2.5026,0.018321,0.022261,5.2125e-07,0.14,0.49,0
0.0074448,0.00038877,0.033167,0.0090222,0.012657,0.0011681,0,0,0.029924,-0.0050976,0,0.0034399,0,0,0,0.033231,0.0089587,0.012657,2.7908,0.018282,0.022655,5.4424e-07,0.15,0.49,0
0.007713,0.00033162,0.033549,0.0089359,0.012745,0.0013671,0,0,0.027044,-0.0049523,0,0.0035545,0,0,0,0.033631,0.0088536,0.012745,3.176,0.01841,0.023079,5.7196e-07,0.16,0.49,0
0.0079856,0.000277,0.034009,0.0087284,0.012821,0.0015061,0,0,0.027544,-0.0053205,0,0.0039159,0,0,0,0.034102,0.0086344,0.012821,3.398,0.018519,0.023655,6.0905e-07,0.17,0.49,0
0.0082638,0.00022379,0.034429,0.0083703,0.01284,0.0015569,0,0,0.028066,-0.0058103,0,0.004048,0,0,0,0.034524,0.0082751,0.01284,3.4074,0.018546,0.024291,6.4962e-07,0.18,0.49,0
0.008547,0.00017098,0.034749,0.0079581,0.012812,0.0015486,0,0,0.028518,-0.0063104,0,0.0040265,0,0,0,0.03484,0.0078676,0.012812,3.2981,0.018507,0.024872,6.8627e-07,0.19,0.49,0
0.0088342,0.00011782,0.034984,0.0075178,0.01275,0.0015008,0,0,0.028903,-0.0068024,0,0.003902,0,0,0,0.035066,0.0074352,0.01275,3.1196,0.018417,0.025395,7.1851e-07,0.2,0.49,0
0.009125,6.3724e-05,0.035156,0.0070609,0.012665,0.0014266,0,0,0.029238,-0.0072855,0,0.0037091,0,0,0,0.035229,0.0069881,0.012665,2.901,0.018294,0.025874,7.4733e-07,0.21,0.49,0
0.009419,8.2796e-06,0.035286,0.0065939,0.012564,0.0013353,0,0,0.029538,-0.0077609,0,0.0034718,0,0,0,0.035348,0.0065315,0.012564,2.6607,0.018148,0.026325,7.7361e-07,0.22,0.49,0
0.0097158,-4.8814e-05,0.035384,0.0061196,0.012451,0.0012325,0,0,0.029812,-0.0082307,0,0.0032046,0,0,0,0.035436,0.0060674,0.012451,2.4094,0.017985,0.026754,7.9795e-07,0.23,0.49,0
0.010015,-0.00010776,0.035458,0.005639,0.012329,0.0011221,0,0,0.030067,-0.008697,0,0.0029174,0,0,0,0.0355,0.0055965,0.012329,2.154,0.017809,0.027171,8.2083e-07,0.24,0.49,0
0.010317,-0.0001687,0.035514,0.0051524,0.0122,0.0010068,0,0,0.030308,-0.0091618,0,0.0026176,0,0,0,0.035548,0.0051187,0.0122,1.8991,0.017622,0.027579,8.4259e-07,0.25,0.49,0
0.010621,-0.00023169,0.035556,0.0046602,0.012065,0.00088892,0,0,0.030539,-0.0096262,0,0.0023112,0,0,0,0.035582,0.0046344,0.012065,1.6485,0.017427,0.027983,8.6347e-07,0.26,0.49,0
0.010928,-0.00029676,0.035588,0.0041632,0.011925,0.00077046,0,0,0.030761,-0.010091,0,0.0020032,0,0,0,0.035607,0.0041441,0.011925,1.4055,0.017226,0.028384,8.8361e-07,0.27,0.49,0
0.011237,-0.00036385,0.03561,0.0036625,0.011782,0.0006531,0,0,0.030977,-0.010555,0,0.0016981,0,0,0,0.035624,0.0036489,0.011782,1.1724,0.017018,0.028784,9.0307e-07,0.28,0.49,0
0.011547,-0.00043289,0.035625,0.0031597,0.011636,0.00053822,0,0,0.031187,-0.011018,0,0.0013994,0,0,0,0.035634,0.0031506,0.011636,0.95116,0.016807,0.029182,9.2184e-07,0.29,0.49,0
0.01186,-0.00050375,0.035633,0.0026569,0.011487,0.00042698,0,0,0.03139,-0.011479,0,0.0011101,0,0,0,0.035639,0.0026512,0.011487,0.74322,0.016592,0.029577,9.3986e-07,0.3,0.49,0
0.012175,-0.00057626,0.035634,0.0021565,0.011337,0.00032027,0,0,0.031586,-0.011935,0,0.0008327,0,0,0,0.035637,0.0021532,0.011337,0.54945,0.016376,0.029967,9.5701e-07,0.31,0.49,0
0.012492,-0.00065022,0.035629,0.001661,0.011187,0.00021882,0,0,0.031774,-0.012384,0,0.00056892,0,0,0,0.03563,0.0016594,0.011187,0.37034,0.016159,0.03035,9.7319e-07,0.32,0.49,0
0.012811,-0.00072538,0.035616,0.0011732,0.011037,0.00012328,0,0,0.031953,-0.012823,0,0.00032052,0,0,0,0.035617,0.0011726,0.011037,0.20621,0.015942,0.030724,9.8826e-07,0.33,0.49,0
0.013131,-0.00080149,0.035598,0.00069549,0.010888,3.4411e-05,0,0,0.032123,-0.01325,0,8.9469e-05,0,0,0,0.035598,0.00069534,0.010888,0.057515,0.015727,0.031086,1.0021e-06,0.34,0.49,0
0.013453,-0.00087822,0.035573,0.00023019,0.010741,-4.6678e-05,0,0,0.032282,-0.013664,0,-0.00012136,0,0,0,0.035574,0.00023004,0.010741,-0.074766,0.015515,0.031435,1.0148e-06,0.35,0.49,0
0.013777,-0.00095523,0.035543,-0.00022086,0.010597,-0.00011829,0,0,0.032431,-0.014063,0,-0.00030755,0,0,0,0.035544,-0.00022132,0.010597,-0.18872,0.015306,0.031769,1.0261e-06,0.36,0.49,0
0.014102,-0.0010321,0.035509,-0.00065609,0.010456,-0.0001779,0,0,0.032569,-0.014445,0,-0.00046253,0,0,0,0.03551,-0.00065702,0.010456,-0.2812,0.015103,0.032088,1.0362e-06,0.37,0.49,0
0.014428,-0.0011084,0.03547,-0.001074,0.010319,-0.00022205,0,0,0.032697,-0.014811,0,-0.00057732,0,0,0,0.035472,-0.0010754,0.010319,-0.34765,0.014905,0.03239,1.0451e-06,0.38,0.49,0
0.014756,-0.0011836,0.035429,-0.0014731,0.010187,-0.00024644,0,0,0.032815,-0.015158,0,-0.00064075,0,0,0,0.03543,-0.0014747,0.010187,-0.38233,0.014714,0.032674,1.0528e-06,0.39,0.49,0
0.015084,-0.001257,0.035384,-0.0018511,0.01006,-0.0002463,0,0,0.032921,-0.015484,0,-0.00064037,0,0,0,0.035386,-0.0018527,0.01006,-0.37887,0.014531,0.032939,1.0592e-06,0.4,0.49,0
0.015414,-0.001328,0.035336,-0.0022054,0.0099392,-0.00021692,0,0,0.033016,-0.015788,0,-0.00056399,0,0,0,0.035337,-0.0022067,0.0099392,-0.33114,0.014357,0.033183,1.0644e-06,0.41,0.49,0
0.015745,-0.0013958,0.035284,-0.0025335,0.0098251,-0.00015439,0,0,0.033096,-0.016066,0,-0.00040142,0,0,0,0.035284,-0.0025342,0.0098251,-0.23417,0.014192,0.033401,1.0681e-06,0.42,0.49,0
0.016076,-0.0014596,0.035225,-0.0028337,0.0097175,-5.6202e-05,0,0,0.03316,-0.016317,0,-0.00014612,0,0,0,0.035226,-0.002834,0.0097175,-0.085007,0.014036,0.033591,1.0704e-06,0.43,0.49,0
0.016408,-0.0015189,0.035156,-0.0031073,0.0096147,7.7249e-05,0,0,0.033204,-0.016539,0,0.00020085,0,0,0,0.035157,-0.0031079,0.0096147,0.11517,0.013888,0.033753,1.071e-06,0.44,0.49,0
0.01674,-0.001573,0.035072,-0.0033571,0.0095145,0.0002365,0,0,0.033225,-0.016733,0,0.00061491,0,0,0,0.035074,-0.0033591,0.0095145,0.35207,0.013743,0.033883,1.0696e-06,0.45,0.49,0
0.017072,-0.001622,0.034984,-0.0035898,0.0094182,0.00039065,0,0,0.033235,-0.01691,0,0.0010157,0,0,0,0.034988,-0.0035941,0.0094182,0.57975,0.013604,0.033998,1.0674e-06,0.46,0.49,0
0.017405,-0.0016668,0.03493,-0.0038667,0.0093189,0.0004862,0,0,0.033294,-0.017141,0,0.0012641,0,0,0,0.034936,-0.003873,0.0093189,0.71769,0.013461,0.034179,1.0689e-06,0.47,0.49,0
0.017738,-0.0017094,0.034933,-0.003111,0.0095465,0.00049886,0,0,0.036773,-0.017602,0,0.0014557,0,0,0,0.034939,-0.0031178,0.0095465,0.75613,0.013789,0.03359,1.0424e-06,0.48,0.49,0
0.01814,-0.0017478,0.035005,-0.0001415,0.010459,0.00049043,0,0,0.047064,-0.018602,0,0.0019335,0,0,0,0.035013,-0.00014902,0.010459,0.81504,0.015108,0.031292,9.5818e-07,0.49,0.49,0
0.01868,-0.0017771,0.03515,0.002694,0.011353,0.00055324,0,0,0.057674,-0.02022,0,0.0027333,0,0,0,0.035161,0.0026836,0.011353,0.9855,0.016399,0.029151,8.9156e-07,0.5,0.49,0
0.019294,-0.001796,0.035309,0.0030433,0.011506,0.00070776,0,0,0.061889,-0.022002,0,0.0036803,0,0,0,0.035325,0.003027,0.011506,1.2513,0.016619,0.029005,9.0139e-07,0.51,0.49,0
0.019917,-0.0018039,0.035418,0.0022561,0.011302,0.00090281,0,0,0.062702,-0.02352,0,0.0046946,0,0,0,0.035444,0.0022309,0.011302,1.5547,0.016326,0.029734,9.384e-07,0.52,0.49,0
0.020548,-0.0017998,0.035458,0.0016331,0.011127,0.0010832,0,0,0.06326,-0.024685,0,0.0056328,0,0,0,0.035493,0.0015981,0.011127,1.8304,0.016073,0.030277,9.638e-07,0.53,0.49,0
0.021183,-0.0017842,0.035432,0.0011561,0.010976,0.0012227,0,0,0.063584,-0.025533,0,0.0063578,0,0,0,0.035476,0.0011123,0.010976,2.0396,0.015855,0.030646,9.7838e-07,0.54,0.49,0
0.02182,-0.0017587,0.035359,0.00079883,0.010848,0.001317,0,0,0.063731,-0.026126,0,0.0068482,0,0,0,0.03541,0.0007485,0.010848,2.1792,0.015669,0.030877,9.8459e-07,0.55,0.49,0
0.022457,-0.0017251,0.035259,0.00053727,0.010739,0.0013713,0,0,0.063751,-0.026524,0,0.007131,0,0,0,0.035313,0.00048295,0.010739,2.2588,0.015512,0.031002,9.8483e-07,0.56,0.49,0
0.023095,-0.0016849,0.035142,0.00035036,0.010648,0.0013928,0,0,0.063685,-0.026773,0,0.0072426,0,0,0,0.035198,0.00029444,0.010648,2.2895,0.01538,0.03105,9.8103e-07,0.57,0.49,0
0.023731,-0.0016396,0.035019,0.00022057,0.010572,0.0013876,0,0,0.063563,-0.026914,0,0.0072153,0,0,0,0.035075,0.00016507,0.010572,2.2805,0.015271,0.031044,9.7469e-07,0.58,0.49,0
0.024366,-0.0015905,0.034897,0.00013359,0.010509,0.0013608,0,0,0.063408,-0.026977,0,0.007076,0,0,0,0.03495,8.0139e-05,0.010509,2.2389,0.01518,0.031001,9.6687e-07,0.59,0.49,0
0.024999,-0.0015388,0.034779,7.7841e-05,0.010457,0.0013166,0,0,0.063237,-0.026986,0,0.0068464,0,0,0,0.034829,2.7698e-05,0.010457,2.1704,0.015105,0.030935,9.5837e-07,0.6,0.49,0
0.025631,-0.0014855,0.034668,4.4065e-05,0.010414,0.0012586,0,0,0.063062,-0.026961,0,0.0065446,0,0,0,0.034714,-1.8716e-06,0.010414,2.0796,0.015042,0.030856,9.4977e-07,0.61,0.49,0
0.02626,-0.0014314,0.034566,2.4919e-05,0.010377,0.0011897,0,0,0.062891,-0.026916,0,0.0061864,0,0,0,0.034607,-1.6241e-05,0.010377,1.9707,0.01499,0.030773,9.4146e-07,0.62,0.49,0
0.026888,-0.0013774,0.034474,1.4649e-05,0.010347,0.0011126,0,0,0.062732,-0.026863,0,0.0057853,0,0,0,0.034511,-2.1451e-05,0.010347,1.8476,0.014945,0.030691,9.3372e-07,0.63,0.49,0
0.027515,-0.0013239,0.034393,8.8258e-06,0.010321,0.0010296,0,0,0.062588,-0.02681,0,0.0053537,0,0,0,0.034424,-2.2176e-05,0.010321,1.7138,0.014907,0.030614,9.2671e-07,0.64,0.49,0
0.02814,-0.0012716,0.034322,4.1278e-06,0.010298,0.0009428,0,0,0.062462,-0.026763,0,0.0049026,0,0,0,0.034348,-2.1938e-05,0.010298,1.5727,0.014875,0.030546,9.2056e-07,0.65,0.49,0
0.028764,-0.0012209,0.03426,-1.8516e-06,0.010278,0.00085414,0,0,0.062355,-0.026726,0,0.0044415,0,0,0,0.034282,-2.3299e-05,0.010278,1.4273,0.014845,0.030489,9.153e-07,0.66,0.49,0
0.029387,-0.0011721,0.034209,-1.0765e-05,0.010259,0.00076524,0,0,0.062268,-0.026702,0,0.0039792,0,0,0,0.034226,-2.8021e-05,0.010259,1.2806,0.014819,0.030443,9.1095e-07,0.67,0.49,0
0.03001,-0.0011254,0.034165,-2.3655e-05,0.010243,0.00067752,0,0,0.0622,-0.026692,0,0.0035231,0,0,0,0.034179,-3.7211e-05,0.010243,1.1349,0.014795,0.030409,9.0748e-07,0.68,0.49,0
0.030631,-0.0010812,0.03413,-4.1077e-05,0.010227,0.0005922,0,0,0.062149,-0.026696,0,0.0030794,0,0,0,0.034141,-5.1456e-05,0.010227,0.99264,0.014772,0.030386,9.0484e-07,0.69,0.49,0
0.031253,-0.0010394,0.034102,-6.3211e-05,0.010212,0.00051025,0,0,0.062116,-0.026715,0,0.0026533,0,0,0,0.03411,-7.0934e-05,0.010212,0.85552,0.01475,0.030374,9.0295e-07,0.7,0.49,0
0.031874,-0.0010001,0.034081,-8.9953e-05,0.010197,0.00043248,0,0,0.062097,-0.026747,0,0.0022489,0,0,0,0.034086,-9.5516e-05,0.010197,0.72507,0.014729,0.030373,9.0175e-07,0.71,0.49,0
0.032494,-0.00096341,0.034064,-0.00012099,0.010183,0.00035947,0,0,0.062092,-0.026791,0,0.0018692,0,0,0,0.034068,-0.00012485,0.010183,0.60246,0.014709,0.03038,9.0115e-07,0.72,0.49,0
0.033115,-0.00092927,0.034053,-0.00015588,0.010169,0.00029166,0,0,0.062098,-0.026845,0,0.0015166,0,0,0,0.034056,-0.00015843,0.010169,0.48851,0.014689,0.030396,9.0108e-07,0.73,0.49,0
0.033736,-0.00089762,0.034045,-0.00019408,0.010155,0.00022932,0,0,0.062114,-0.026909,0,0.0011925,0,0,0,0.034047,-0.00019566,0.010155,0.38378,0.014669,0.030418,9.0144e-07,0.74,0.49,0
0.034358,-0.00086839,0.034041,-0.00023499,0.010142,0.0001726,0,0,0.062138,-0.02698,0,0.00089754,0,0,0,0.034042,-0.00023591,0.010142,0.28857,0.014649,0.030446,9.0216e-07,0.75,0.49,0
0.034979,-0.00084149,0.034039,-0.00027803,0.010128,0.00012153,0,0,0.062168,-0.027057,0,0.00063197,0,0,0,0.03404,-0.0002785,0.010128,0.20296,0.01463,0.030478,9.0316e-07,0.76,0.49,0
0.035601,-0.00081681,0.034039,-0.0003226,0.010115,7.605e-05,0,0,0.062204,-0.027138,0,0.00039546,0,0,0,0.03404,-0.00032279,0.010115,0.12685,0.014611,0.030513,9.0439e-07,0.77,0.49,0
0.036223,-0.00079425,0.034041,-0.00036813,0.010102,3.6021e-05,0,0,0.062242,-0.027222,0,0.00018731,0,0,0,0.034041,-0.00036818,0.010102,0.060021,0.014592,0.030551,9.0578e-07,0.78,0.49,0
0.036846,-0.00077367,0.034044,-0.00041408,0.010089,1.2524e-06,0,0,0.062284,-0.027308,0,6.5127e-06,0,0,0,0.034044,-0.0004141,0.010089,0.0021203,0.014573,0.030591,9.0728e-07,0.79,0.49,0
0.037469,-0.00075497,0.034048,-0.00045998,0.010076,-2.8493e-05,0,0,0.062326,-0.027395,0,-0.00014816,0,0,0,0.034048,-0.00046002,0.010076,-0.047275,0.014555,0.030631,9.0885e-07,0.8,0.49,0
0.038092,-0.000738,0.034052,-0.00050538,0.010064,-5.3484e-05,0,0,0.06237,-0.027481,0,-0.00027812,0,0,0,0.034053,-0.00050547,0.010064,-0.088646,0.014537,0.030671,9.1045e-07,0.81,0.49,0
0.038716,-0.00072266,0.034057,-0.0005499,0.010052,-7.4012e-05,0,0,0.062413,-0.027565,0,-0.00038486,0,0,0,0.034057,-0.00055007,0.010052,-0.12251,0.01452,0.030711,9.1204e-07,0.82,0.49,0
0.039341,-0.00070882,0.034062,-0.00059319,0.010041,-9.0378e-05,0,0,0.062455,-0.027648,0,-0.00046997,0,0,0,0.034062,-0.00059343,0.010041,-0.1494,0.014503,0.03075,9.136e-07,0.83,0.49,0
0.039965,-0.00069638,0.034066,-0.00063496,0.010029,-0.00010289,0,0,0.062496,-0.027727,0,-0.00053503,0,0,0,0.034067,-0.00063527,0.010029,-0.16987,0.014487,0.030788,9.1511e-07,0.84,0.49,0
0.040591,-0.00068522,0.034071,-0.00067496,0.010019,-0.00011186,0,0,0.062535,-0.027804,0,-0.00058166,0,0,0,0.034071,-0.00067532,0.010019,-0.18444,0.014471,0.030824,9.1655e-07,0.85,0.49,0
0.041216,-0.00067524,0.034075,-0.00071297,0.010009,-0.00011758,0,0,0.062572,-0.027876,0,-0.00061142,0,0,0,0.034075,-0.00071337,0.010009,-0.19364,0.014457,0.030858,9.1792e-07,0.86,0.49,0
0.041842,-0.00066635,0.034079,-0.00074883,0.009999,-0.00012035,0,0,0.062607,-0.027944,0,-0.00062583,0,0,0,0.034079,-0.00074924,0.009999,-0.19799,0.014443,0.03089,9.192e-07,0.87,0.49,0
0.042468,-0.00065846,0.034082,-0.00078237,0.0099899,-0.00012046,0,0,0.06264,-0.028008,0,-0.00062638,0,0,0,0.034083,-0.00078279,0.0099899,-0.19795,0.01443,0.03092,9.2038e-07,0.88,0.49,0
0.043095,-0.00065149,0.034085,-0.0008135,0.0099815,-0.00011817,0,0,0.06267,-0.028067,0,-0.00061448,0,0,0,0.034086,-0.0008139,0.0099815,-0.194,0.014418,0.030948,9.2147e-07,0.89,0.49,0
0.043722,-0.00064537,0.034088,-0.00084211,0.0099738,-0.00011374,0,0,0.062697,-0.028121,0,-0.00059146,0,0,0,0.034088,-0.00084248,0.0099738,-0.18657,0.014407,0.030973,9.2245e-07,0.9,0.49,0
0.044349,-0.00064002,0.03409,-0.00086813,0.0099667,-0.00010742,0,0,0.062722,-0.02817,0,-0.0005586,0,0,0,0.034091,-0.00086846,0.0099667,-0.17606,0.014396,0.030996,9.2334e-07,0.91,0.49,0
0.044976,-0.0006354,0.034092,-0.00089151,0.0099603,-9.9443e-05,0,0,0.062744,-0.028215,0,-0.0005171,0,0,0,0.034093,-0.00089179,0.0099603,-0.16287,0.014387,0.031017,9.2413e-07,0.92,0.49,0
0.045604,-0.00063144,0.034094,-0.0009122,0.0099546,-9.0022e-05,0,0,0.062763,-0.028254,0,-0.00046811,0,0,0,0.034094,-0.00091243,0.0099546,-0.14734,0.014379,0.031035,9.2481e-07,0.93,0.49,0
0.046231,-0.0006281,0.034096,-0.00093017,0.0099496,-7.9368e-05,0,0,0.062779,-0.028287,0,-0.00041271,0,0,0,0.034096,-0.00093035,0.0099496,-0.12983,0.014372,0.03105,9.254e-07,0.94,0.49,0
0.046859,-0.00062534,0.034097,-0.00094541,0.0099454,-6.7678e-05,0,0,0.062793,-0.028316,0,-0.00035192,0,0,0,0.034097,-0.00094554,0.0099454,-0.11066,0.014366,0.031063,9.259e-07,0.95,0.49,0
0.047487,-0.00062312,0.034098,-0.00095789,0.0099419,-5.5139e-05,0,0,0.062805,-0.02834,0,-0.00028672,0,0,0,0.034098,-0.00095798,0.0099419,-0.090122,0.014361,0.031074,9.263e-07,0.96,0.49,0
0.048115,-0.00062143,0.034098,-0.0009676,0.0099392,-4.1931e-05,0,0,0.062814,-0.028358,0,-0.00021804,0,0,0,0.034098,-0.00096765,0.0099392,-0.068514,0.014357,0.031083,9.2661e-07,0.97,0.49,0
0.048744,-0.00062023,0.034099,-0.00097454,0.0099373,-2.8227e-05,0,0,0.06282,-0.028371,0,-0.00014678,0,0,0,0.034099,-0.00097457,0.0099373,-0.046113,0.014354,0.031089,9.2683e-07,0.98,0.49,0
0.049372,-0.00061952,0.034099,-0.00097871,0.0099361,-1.3064e-05,0,0,0.062824,-0.028379,0,-6.7931e-05,0,0,0,0.034099,-0.00097872,0.0099361,-0.021339,0.014352,0.031092,9.2696e-07,0.99,0.49,0
0.049686,-0.00061929,0.034099,-0.0009801,0.0099357,-4.8553e-06,0,0,0.062825,-0.028381,0,-2.5248e-05,0,0,0,0.034099,-0.0009801,0.0099357,-0.00793,0.014352,0.031093,9.2701e-07,1,0.49,0
0.00024345,-5.4802e-07,0.03276,0.013882,0.013993,-9.2498e-06,0,0,0.048795,-0.00028771,0,-4.8099e-05,0,0,0,0.03276,0.013882,0.013993,-0.02879,0.020211,0.018824,3.4251e-07,0,0.5,0
0.00048795,3.8511e-07,0.032782,0.013725,0.013952,2.0506e-05,0,0,0.048958,-0.0005901,0,0.00010663,0,0,0,0.032783,0.013725,0.013952,0.059638,0.020153,0.018946,3.491e-07,0.01,0.5,0
0.00097916,5.3751e-06,0.032863,0.013412,0.013882,0.00010216,0,0,0.049349,-0.0012228,0,0.00053125,0,0,0,0.032864,0.013411,0.013882,0.29762,0.020052,0.019222,3.6406e-07,0.02,0.5,0
0.0014749,1.6849e-05,0.03298,0.013086,0.01382,0.00021305,0,0,0.049817,-0.0019087,0,0.0011079,0,0,0,0.032983,0.013083,0.01382,0.60996,0.019962,0.019543,3.8154e-07,0.03,0.5,0
0.0019755,3.5122e-05,0.033101,0.012735,0.013751,0.00033589,0,0,0.050312,-0.002642,0,0.0017466,0,0,0,0.033108,0.012728,0.013751,0.94104,0.019862,0.019889,4.0047e-07,0.04,0.5,0
0.0024812,6.022e-05,0.033225,0.012362,0.013676,0.00046703,0,0,0.050827,-0.0034165,0,0.0024286,0,0,0,0.033236,0.012351,0.013676,1.2784,0.019754,0.020256,4.2073e-07,0.05,0.5,0
0.0029921,9.1896e-05,0.03335,0.011971,0.013597,0.000604,0,0,0.05136,-0.0042252,0,0.0031408,0,0,0,0.033368,0.011954,0.013597,1.614,0.019639,0.020643,4.4219e-07,0.06,0.5,0
0.0035084,0.00012961,0.033477,0.011568,0.013513,0.0007446,0,0,0.051905,-0.0050586,0,0.0038719,0,0,0,0.033503,0.011542,0.013513,1.9418,0.01952,0.021046,4.6466e-07,0.07,0.5,0
0.0040302,0.00017246,0.033604,0.011159,0.013429,0.00088585,0,0,0.052456,-0.0059024,0,0.0046064,0,0,0,0.03364,0.011123,0.013429,2.255,0.019397,0.021458,4.8781e-07,0.08,0.5,0
0.0045575,0.000219,0.033731,0.010759,0.013347,0.0010228,0,0,0.052998,-0.0067283,0,0.0053187,0,0,0,0.033777,0.010713,0.013347,2.544,0.019279,0.021867,5.1097e-07,0.09,0.5,0
0.0050901,0.00026709,0.033851,0.010396,0.013274,0.0011482,0,0,0.0535,-0.0074833,0,0.0059705,0,0,0,0.033908,0.010339,0.013274,2.7971,0.019174,0.022248,5.3276e-07,0.1,0.5,0
0.0056275,0.00031349,0.033956,0.01012,0.013223,0.0012451,0,0,0.053907,-0.008067,0,0.0064745,0,0,0,0.034022,0.010055,0.013223,2.9849,0.0191,0.022551,5.5041e-07,0.11,0.5,0
0.0061682,0.00035299,0.034002,0.010012,0.013204,0.0012757,0,0,0.054073,-0.0082992,0,0.0066335,0,0,0,0.03407,0.0099442,0.013204,3.0376,0.019073,0.022672,5.5761e-07,0.12,0.5,0
0.0067089,0.00037714,0.033962,0.0098284,0.013137,0.0011916,0,0,0.050683,-0.0077973,0,0.0059619,0,0,0,0.034023,0.0097676,0.013137,2.8346,0.018976,0.022764,5.6103e-07,0.13,0.5,0
0.0071819,0.00037247,0.033946,0.0093352,0.012984,0.0010244,0,0,0.040694,-0.0065679,0,0.0042943,0,0,0,0.033992,0.0092888,0.012984,2.4089,0.018755,0.023089,5.7681e-07,0.14,0.5,0
0.0075228,0.00033508,0.034004,0.0089374,0.012882,0.00092462,0,0,0.030808,-0.0055312,0,0.0028197,0,0,0,0.03404,0.0089009,0.012882,2.1278,0.018608,0.023409,5.9485e-07,0.15,0.5,0
0.0077981,0.00028078,0.03411,0.0088039,0.012874,0.0009866,0,0,0.027607,-0.0052915,0,0.0025652,0,0,0,0.034151,0.0087633,0.012874,2.2372,0.018596,0.023603,6.0737e-07,0.16,0.5,0
0.008075,0.00022332,0.034322,0.0086312,0.012886,0.0011368,0,0,0.027867,-0.0055314,0,0.0029558,0,0,0,0.034375,0.0085787,0.012886,2.533,0.018613,0.023936,6.2854e-07,0.17,0.5,0
0.0083554,0.00016563,0.034591,0.0083382,0.012879,0.0012631,0,0,0.028226,-0.0059027,0,0.003284,0,0,0,0.034653,0.0082761,0.012879,2.75,0.018603,0.024404,6.5806e-07,0.18,0.5,0
0.0086395,0.0001081,0.034819,0.0079761,0.012838,0.0013232,0,0,0.028574,-0.006321,0,0.0034405,0,0,0,0.034884,0.0079102,0.012838,2.8165,0.018544,0.024879,6.8759e-07,0.19,0.5,0
0.0089269,5.0189e-05,0.035001,0.007567,0.01277,0.0013271,0,0,0.0289,-0.0067645,0,0.0034504,0,0,0,0.035066,0.0075024,0.01277,2.7642,0.018446,0.025344,7.1584e-07,0.2,0.5,0
0.0092175,-8.6332e-06,0.035148,0.0071314,0.012684,0.0012929,0,0,0.029203,-0.007218,0,0.0033616,0,0,0,0.035208,0.0070715,0.012684,2.6381,0.018321,0.025792,7.4254e-07,0.21,0.5,0
0.009511,-6.8769e-05,0.035263,0.0066801,0.012583,0.0012329,0,0,0.029484,-0.0076737,0,0.0032056,0,0,0,0.035317,0.0066267,0.012583,2.4669,0.018175,0.026224,7.6761e-07,0.22,0.5,0
0.0098072,-0.00013052,0.035352,0.0062173,0.012471,0.0011546,0,0,0.029746,-0.0081297,0,0.0030019,0,0,0,0.035398,0.0061713,0.012471,2.2674,0.018014,0.026642,7.9118e-07,0.23,0.5,0
0.010106,-0.0001941,0.03542,0.0057447,0.01235,0.001063,0,0,0.029992,-0.0085863,0,0.0027639,0,0,0,0.035459,0.0057064,0.01235,2.0507,0.017838,0.02705,8.135e-07,0.24,0.5,0
0.010407,-0.00025967,0.035471,0.0052632,0.01222,0.00096254,0,0,0.030226,-0.0090443,0,0.0025026,0,0,0,0.035502,0.0052323,0.01222,1.825,0.017652,0.027452,8.3482e-07,0.25,0.5,0
0.01071,-0.0003273,0.035508,0.0047735,0.012085,0.00085651,0,0,0.030451,-0.0095043,0,0.0022269,0,0,0,0.035532,0.0047494,0.012085,1.5968,0.017455,0.02785,8.5529e-07,0.26,0.5,0
0.011016,-0.000397,0.035534,0.0042768,0.011943,0.00074785,0,0,0.030668,-0.0099662,0,0.0019444,0,0,0,0.035552,0.0042587,0.011943,1.3716,0.017251,0.028247,8.7504e-07,0.27,0.5,0
0.011324,-0.00046874,0.035549,0.0037746,0.011797,0.00063898,0,0,0.030878,-0.010429,0,0.0016614,0,0,0,0.035562,0.0037616,0.011797,1.1533,0.01704,0.028642,8.9406e-07,0.28,0.5,0
0.011634,-0.00054242,0.035556,0.0032688,0.011647,0.0005319,0,0,0.031081,-0.010892,0,0.0013829,0,0,0,0.035565,0.0032599,0.011647,0.94514,0.016824,0.029035,9.1232e-07,0.29,0.5,0
0.011945,-0.00061788,0.035554,0.0027618,0.011495,0.00042819,0,0,0.031277,-0.011353,0,0.0011133,0,0,0,0.035559,0.002756,0.011495,0.74946,0.016603,0.029424,9.2971e-07,0.3,0.5,0
0.012259,-0.00069495,0.035543,0.0022562,0.01134,0.00032905,0,0,0.031464,-0.011809,0,0.00085552,0,0,0,0.035546,0.0022528,0.01134,0.56766,0.01638,0.029808,9.461e-07,0.31,0.5,0
0.012575,-0.0007734,0.035524,0.0017551,0.011184,0.00023527,0,0,0.031642,-0.012257,0,0.00061171,0,0,0,0.035525,0.0017533,0.011184,0.4004,0.016154,0.030183,9.6132e-07,0.32,0.5,0
0.012892,-0.00085295,0.035496,0.0012611,0.011027,0.00014741,0,0,0.031809,-0.012696,0,0.00038326,0,0,0,0.035497,0.0012604,0.011027,0.24783,0.015928,0.030548,9.7525e-07,0.33,0.5,0
0.013211,-0.00093333,0.03546,0.00077676,0.010871,6.591e-05,0,0,0.031965,-0.013122,0,0.00017137,0,0,0,0.03546,0.00077652,0.010871,0.10992,0.015702,0.030899,9.8782e-07,0.34,0.5,0
0.013531,-0.0010142,0.035416,0.00030383,0.010716,-8.5549e-06,0,0,0.03211,-0.013536,0,-2.2243e-05,0,0,0,0.035416,0.00030372,0.010716,-0.013014,0.015478,0.031236,9.99e-07,0.35,0.5,0
0.013853,-0.0010952,0.035366,-0.00015655,0.010563,-7.4753e-05,0,0,0.032244,-0.013935,0,-0.00019436,0,0,0,0.035366,-0.0001568,0.010563,-0.11972,0.015257,0.03156,1.0089e-06,0.36,0.5,0
0.014176,-0.001176,0.035312,-0.00060384,0.010412,-0.00013052,0,0,0.032369,-0.014321,0,-0.00033934,0,0,0,0.035312,-0.00060439,0.010412,-0.20747,0.01504,0.03187,1.0176e-06,0.37,0.5,0
0.0145,-0.001256,0.035255,-0.0010378,0.010265,-0.00017249,0,0,0.032487,-0.014694,0,-0.00044847,0,0,0,0.035256,-0.0010386,0.010265,-0.27172,0.014828,0.032169,1.0253e-06,0.38,0.5,0
0.014826,-0.0013347,0.035199,-0.0014577,0.010122,-0.00019611,0,0,0.032599,-0.015054,0,-0.00050989,0,0,0,0.0352,-0.0014588,0.010122,-0.30613,0.014621,0.032457,1.0321e-06,0.39,0.5,0
0.015152,-0.0014114,0.035143,-0.001862,0.0099844,-0.00019599,0,0,0.032707,-0.0154,0,-0.00050957,0,0,0,0.035145,-0.0018631,0.0099844,-0.30327,0.014422,0.032734,1.0383e-06,0.4,0.5,0
0.01548,-0.0014856,0.035091,-0.0022476,0.0098531,-0.00016672,0,0,0.03281,-0.015731,0,-0.00043348,0,0,0,0.035092,-0.0022484,0.0098531,-0.25591,0.014232,0.032998,1.0438e-06,0.41,0.5,0
0.015809,-0.0015563,0.035043,-0.0026098,0.0097301,-0.00010409,0,0,0.032907,-0.016042,0,-0.00027063,0,0,0,0.035044,-0.0026102,0.0097301,-0.15871,0.014055,0.033248,1.0488e-06,0.42,0.5,0
0.016138,-0.0016229,0.035002,-0.0029445,0.0096172,-5.883e-06,0,0,0.033,-0.01633,0,-1.5296e-05,0,0,0,0.035002,-0.0029447,0.0096172,-0.0094313,0.013892,0.033483,1.0533e-06,0.43,0.5,0
0.016469,-0.0016846,0.034968,-0.0032509,0.0095151,0.00012824,0,0,0.033089,-0.016596,0,0.00033343,0,0,0,0.034969,-0.0032517,0.0095151,0.1915,0.013744,0.033702,1.0577e-06,0.44,0.5,0
0.0168,-0.0017408,0.03493,-0.0035321,0.0094192,0.00029463,0,0,0.033163,-0.016837,0,0.00076603,0,0,0,0.034932,-0.0035348,0.0094192,0.43804,0.013606,0.0339,1.061e-06,0.45,0.5,0
0.017132,-0.0017915,0.034865,-0.0037687,0.0093288,0.00046453,0,0,0.033197,-0.017027,0,0.0012078,0,0,0,0.034871,-0.0037747,0.0093288,0.6883,0.013475,0.034041,1.0609e-06,0.46,0.5,0
0.017464,-0.0018382,0.034818,-0.0039179,0.0092702,0.00055009,0,0,0.033213,-0.017145,0,0.0014302,0,0,0,0.034826,-0.0039259,0.0092702,0.81346,0.01339,0.034125,1.0603e-06,0.47,0.5,0
0.017796,-0.0018849,0.034841,-0.0029811,0.0095581,0.00046765,0,0,0.036629,-0.017435,0,0.001282,0,0,0,0.034848,-0.0029876,0.0095581,0.69991,0.013806,0.033403,1.0313e-06,0.48,0.5,0
0.018196,-0.0019335,0.034909,-7.0726e-05,0.010451,0.00032877,0,0,0.046919,-0.018515,0,0.0011843,0,0,0,0.034913,-7.4767e-05,0.010451,0.53102,0.015096,0.031142,9.4882e-07,0.49,0.5,0
0.018735,-0.0019799,0.035027,0.0025345,0.011268,0.00035932,0,0,0.057597,-0.02044,0,0.00177,0,0,0,0.035032,0.0025293,0.011268,0.6356,0.016277,0.029157,8.8713e-07,0.5,0.5,0
0.019348,-0.0020173,0.035167,0.0027761,0.011383,0.00058536,0,0,0.061839,-0.022378,0,0.0030439,0,0,0,0.035179,0.0027641,0.011383,1.028,0.016442,0.029081,8.9883e-07,0.51,0.5,0
0.019971,-0.0020403,0.035241,0.0020166,0.011177,0.00086975,0,0,0.062565,-0.023818,0,0.0045227,0,0,0,0.035265,0.0019927,0.011177,1.4939,0.016145,0.029763,9.3183e-07,0.52,0.5,0
0.0206,-0.0020472,0.035228,0.001453,0.011004,0.0011163,0,0,0.062982,-0.024834,0,0.0058049,0,0,0,0.035266,0.0014155,0.011004,1.8887,0.015895,0.03022,9.5105e-07,0.53,0.5,0
0.021231,-0.0020396,0.035163,0.0010327,0.010859,0.0012972,0,0,0.063191,-0.025547,0,0.0067456,0,0,0,0.035212,0.00098306,0.010859,2.1729,0.015685,0.030515,9.6064e-07,0.54,0.5,0
0.021864,-0.0020196,0.035071,0.00072345,0.010738,0.001416,0,0,0.063265,-0.026039,0,0.0073633,0,0,0,0.03513,0.00066489,0.010738,2.357,0.015511,0.030694,9.6387e-07,0.55,0.5,0
0.022496,-0.0019896,0.034967,0.00050088,0.01064,0.0014835,0,0,0.063249,-0.026363,0,0.007714,0,0,0,0.035031,0.00043691,0.01064,2.4607,0.015369,0.030788,9.6276e-07,0.56,0.5,0
0.023128,-0.0019516,0.034858,0.00034531,0.010561,0.00151,0,0,0.063172,-0.026561,0,0.0078518,0,0,0,0.034924,0.00027915,0.010561,2.5012,0.015255,0.030818,9.5874e-07,0.57,0.5,0
0.02376,-0.0019076,0.034749,0.0002407,0.010497,0.0015042,0,0,0.063056,-0.026666,0,0.0078217,0,0,0,0.034815,0.00017504,0.010497,2.492,0.015162,0.030804,9.5285e-07,0.58,0.5,0
0.02439,-0.0018591,0.034644,0.00017391,0.010445,0.001473,0,0,0.062916,-0.026706,0,0.0076593,0,0,0,0.034707,0.00011087,0.010445,2.4432,0.015088,0.03076,9.4591e-07,0.59,0.5,0
0.025018,-0.0018074,0.034545,0.00013427,0.010404,0.0014218,0,0,0.062768,-0.026701,0,0.0073932,0,0,0,0.034604,7.5408e-05,0.010404,2.3626,0.015028,0.030697,9.3854e-07,0.6,0.5,0
0.025645,-0.0017538,0.034454,0.00011314,0.01037,0.001355,0,0,0.062619,-0.026668,0,0.0070462,0,0,0,0.034508,5.9541e-05,0.01037,2.2566,0.014979,0.030624,9.3119e-07,0.61,0.5,0
0.02627,-0.0016992,0.034373,0.00010363,0.010343,0.0012765,0,0,0.062477,-0.026622,0,0.0066378,0,0,0,0.03442,5.5944e-05,0.010343,2.1307,0.01494,0.030549,9.2419e-07,0.62,0.5,0
0.026894,-0.0016446,0.0343,0.00010035,0.01032,0.0011893,0,0,0.062348,-0.026572,0,0.0061843,0,0,0,0.034342,5.8845e-05,0.01032,1.9896,0.014907,0.030477,9.1779e-07,0.63,0.5,0
0.027517,-0.0015907,0.034238,9.9153e-05,0.010301,0.0010962,0,0,0.062235,-0.026525,0,0.0057001,0,0,0,0.034273,6.38e-05,0.010301,1.8375,0.014879,0.030412,9.1214e-07,0.64,0.5,0
0.028139,-0.0015379,0.034185,9.6977e-05,0.010285,0.00099957,0,0,0.062141,-0.026488,0,0.0051978,0,0,0,0.034214,6.751e-05,0.010285,1.6784,0.014855,0.030356,9.0733e-07,0.65,0.5,0
0.02876,-0.0014869,0.034141,9.1671e-05,0.01027,0.00090157,0,0,0.062065,-0.026463,0,0.0046882,0,0,0,0.034165,6.7646e-05,0.01027,1.5158,0.014834,0.030312,9.034e-07,0.66,0.5,0
0.02938,-0.0014379,0.034106,8.1831e-05,0.010256,0.000804,0,0,0.062008,-0.026453,0,0.0041808,0,0,0,0.034125,6.2687e-05,0.010256,1.353,0.014815,0.030281,9.0034e-07,0.67,0.5,0
0.03,-0.0013912,0.034078,6.6664e-05,0.010243,0.00070838,0,0,0.06197,-0.02646,0,0.0036836,0,0,0,0.034093,5.1775e-05,0.010243,1.1927,0.014796,0.030261,8.9814e-07,0.68,0.5,0
0.03062,-0.0013471,0.034058,4.5851e-05,0.010231,0.00061598,0,0,0.061949,-0.026482,0,0.0032031,0,0,0,0.034069,3.4572e-05,0.010231,1.0373,0.014778,0.030254,8.9672e-07,0.69,0.5,0
0.031239,-0.0013056,0.034043,1.9441e-05,0.010219,0.00052782,0,0,0.061944,-0.026518,0,0.0027447,0,0,0,0.034052,1.1143e-05,0.010219,0.88864,0.014761,0.030257,8.9601e-07,0.7,0.5,0
0.031859,-0.0012667,0.034034,-1.225e-05,0.010207,0.00044469,0,0,0.061952,-0.026569,0,0.0023124,0,0,0,0.03404,-1.8154e-05,0.010207,0.74825,0.014743,0.03027,8.9594e-07,0.71,0.5,0
0.032478,-0.0012306,0.03403,-4.8722e-05,0.010194,0.00036714,0,0,0.061973,-0.026632,0,0.0019091,0,0,0,0.034034,-5.276e-05,0.010194,0.61724,0.014725,0.030292,8.9642e-07,0.72,0.5,0
0.033098,-0.001197,0.034029,-8.9355e-05,0.010182,0.00029556,0,0,0.062003,-0.026705,0,0.0015369,0,0,0,0.034032,-9.1985e-05,0.010182,0.49635,0.014707,0.030322,8.9735e-07,0.73,0.5,0
0.033718,-0.0011661,0.034032,-0.00013346,0.010169,0.00023015,0,0,0.062042,-0.026788,0,0.0011968,0,0,0,0.034033,-0.00013507,0.010169,0.38602,0.014689,0.030357,8.9866e-07,0.74,0.5,0
0.034339,-0.0011377,0.034036,-0.00018034,0.010157,0.000171,0,0,0.062087,-0.026876,0,0.00088922,0,0,0,0.034037,-0.00018124,0.010157,0.2864,0.014671,0.030398,9.0026e-07,0.75,0.5,0
0.03496,-0.0011116,0.034043,-0.00022927,0.010144,0.00011807,0,0,0.062136,-0.026971,0,0.00061397,0,0,0,0.034043,-0.00022972,0.010144,0.19745,0.014652,0.030442,9.0208e-07,0.76,0.5,0
0.035582,-0.0010879,0.03405,-0.0002796,0.010131,7.1222e-05,0,0,0.06219,-0.027068,0,0.00037035,0,0,0,0.03405,-0.00027977,0.010131,0.11892,0.014634,0.030488,9.0405e-07,0.77,0.5,0
0.036204,-0.0010662,0.034059,-0.00033068,0.010118,3.0247e-05,0,0,0.062245,-0.027168,0,0.00015729,0,0,0,0.034059,-0.00033072,0.010118,0.050446,0.014615,0.030537,9.0613e-07,0.78,0.5,0
0.036827,-0.0010466,0.034068,-0.00038193,0.010106,-5.1109e-06,0,0,0.062301,-0.027268,0,-2.6577e-05,0,0,0,0.034068,-0.00038195,0.010106,-0.0084551,0.014597,0.030585,9.0825e-07,0.79,0.5,0
0.03745,-0.0010288,0.034077,-0.00043284,0.010093,-3.5153e-05,0,0,0.062357,-0.027368,0,-0.0001828,0,0,0,0.034077,-0.00043289,0.010093,-0.058325,0.014579,0.030634,9.1038e-07,0.8,0.5,0
0.038074,-0.0010127,0.034086,-0.00048294,0.010081,-6.0206e-05,0,0,0.062412,-0.027466,0,-0.00031307,0,0,0,0.034086,-0.00048306,0.010081,-0.099754,0.014561,0.030682,9.1247e-07,0.81,0.5,0
0.038698,-0.00099829,0.034094,-0.00053184,0.010069,-8.0609e-05,0,0,0.062466,-0.027561,0,-0.00041916,0,0,0,0.034094,-0.00053203,0.010069,-0.13335,0.014544,0.030729,9.1451e-07,0.82,0.5,0
0.039323,-0.00098533,0.034102,-0.00057918,0.010057,-9.6709e-05,0,0,0.062518,-0.027654,0,-0.00050289,0,0,0,0.034103,-0.00057946,0.010057,-0.15974,0.014527,0.030775,9.1648e-07,0.83,0.5,0
0.039949,-0.00097373,0.03411,-0.00062468,0.010046,-0.00010885,0,0,0.062568,-0.027743,0,-0.00056604,0,0,0,0.03411,-0.00062502,0.010046,-0.17954,0.01451,0.030818,9.1834e-07,0.84,0.5,0
0.040574,-0.00096337,0.034117,-0.00066808,0.010035,-0.00011738,0,0,0.062614,-0.027827,0,-0.00061039,0,0,0,0.034118,-0.00066848,0.010035,-0.19333,0.014495,0.030859,9.201e-07,0.85,0.5,0
0.041201,-0.00095416,0.034124,-0.00070919,0.010024,-0.00012262,0,0,0.062658,-0.027907,0,-0.00063765,0,0,0,0.034124,-0.00070962,0.010024,-0.20169,0.01448,0.030898,9.2173e-07,0.86,0.5,0
0.041828,-0.00094598,0.034129,-0.00074784,0.010014,-0.0001249,0,0,0.062699,-0.027982,0,-0.00064946,0,0,0,0.03413,-0.00074829,0.010014,-0.20517,0.014465,0.030934,9.2325e-07,0.87,0.5,0
0.042455,-0.00093876,0.034134,-0.0007839,0.010005,-0.0001245,0,0,0.062736,-0.028052,0,-0.0006474,0,0,0,0.034135,-0.00078434,0.010005,-0.20428,0.014452,0.030968,9.2464e-07,0.88,0.5,0
0.043082,-0.00093241,0.034139,-0.00081726,0.0099965,-0.00012172,0,0,0.06277,-0.028116,0,-0.00063293,0,0,0,0.034139,-0.00081769,0.0099965,-0.1995,0.014439,0.030999,9.259e-07,0.89,0.5,0
0.04371,-0.00092685,0.034143,-0.00084786,0.0099885,-0.00011682,0,0,0.062801,-0.028175,0,-0.00060747,0,0,0,0.034143,-0.00084825,0.0099885,-0.19129,0.014428,0.031027,9.2704e-07,0.9,0.5,0
0.044338,-0.00092202,0.034146,-0.00087563,0.0099812,-0.00011006,0,0,0.062829,-0.028228,0,-0.00057231,0,0,0,0.034147,-0.00087598,0.0099812,-0.18006,0.014417,0.031052,9.2805e-07,0.91,0.5,0
0.044967,-0.00091785,0.034149,-0.00090053,0.0099746,-0.00010167,0,0,0.062854,-0.028275,0,-0.00052869,0,0,0,0.034149,-0.00090082,0.0099746,-0.1662,0.014408,0.031074,9.2895e-07,0.92,0.5,0
0.045595,-0.00091429,0.034152,-0.00092253,0.0099687,-9.1876e-05,0,0,0.062875,-0.028317,0,-0.00047776,0,0,0,0.034152,-0.00092277,0.0099687,-0.15009,0.014399,0.031094,9.2973e-07,0.93,0.5,0
0.046224,-0.0009113,0.034153,-0.00094161,0.0099636,-8.0882e-05,0,0,0.062894,-0.028353,0,-0.00042059,0,0,0,0.034154,-0.0009418,0.0099636,-0.13205,0.014392,0.031111,9.3039e-07,0.94,0.5,0
0.046853,-0.00090884,0.034155,-0.00095776,0.0099592,-6.8884e-05,0,0,0.062909,-0.028384,0,-0.0003582,0,0,0,0.034155,-0.0009579,0.0099592,-0.1124,0.014386,0.031125,9.3095e-07,0.95,0.5,0
0.047483,-0.00090687,0.034156,-0.00097098,0.0099556,-5.6066e-05,0,0,0.062922,-0.028409,0,-0.00029154,0,0,0,0.034156,-0.00097107,0.0099556,-0.091451,0.01438,0.031137,9.314e-07,0.96,0.5,0
0.048112,-0.00090536,0.034157,-0.00098126,0.0099528,-4.2604e-05,0,0,0.062932,-0.028429,0,-0.00022154,0,0,0,0.034157,-0.00098132,0.0099528,-0.06947,0.014376,0.031146,9.3175e-07,0.97,0.5,0
0.048741,-0.0009043,0.034158,-0.0009886,0.0099508,-2.8665e-05,0,0,0.062939,-0.028442,0,-0.00014906,0,0,0,0.034158,-0.00098863,0.0099508,-0.04673,0.014373,0.031152,9.3199e-07,0.98,0.5,0
0.049371,-0.00090367,0.034158,-0.00099301,0.0099496,-1.3409e-05,0,0,0.062943,-0.028451,0,-6.9724e-05,0,0,0,0.034158,-0.00099302,0.0099496,-0.021856,0.014372,0.031156,9.3214e-07,0.99,0.5,0
0.049685,-0.00090346,0.034158,-0.00099448,0.0099492,-5.2207e-06,0,0,0.062944,-0.028454,0,-2.7148e-05,0,0,0,0.034158,-0.00099448,0.0099492,-0.008509,0.014371,0.031157,9.3219e-07,1,0.5,0
0.00024265,-3.5886e-06,0.032651,0.013817,0.01394,-0.00012674,0,0,0.048647,-0.00032016,0,-0.00065903,0,0,0,0.032652,0.013816,0.01394,-0.38626,0.020136,0.018774,3.3981e-07,0,0.51,0
0.00048647,-5.8195e-06,0.032676,0.013647,0.013897,-9.8726e-05,0,0,0.048826,-0.00065045,0,-0.00051337,0,0,0,0.032677,0.013646,0.013897,-0.29931,0.020073,0.018908,3.4696e-07,0.01,0.51,0
0.00097652,-7.4023e-06,0.032768,0.013311,0.013824,-2.1741e-05,0,0,0.049254,-0.001332,0,-0.00011305,0,0,0,0.032768,0.013311,0.013824,-0.067367,0.019968,0.019207,3.6308e-07,0.02,0.51,0
0.0014716,-2.9814e-06,0.032904,0.012972,0.013763,8.333e-05,0,0,0.049767,-0.0020563,0,0.00043332,0,0,0,0.032905,0.012971,0.013763,0.236,0.01988,0.019551,3.8174e-07,0.03,0.51,0
0.0019719,7.7835e-06,0.033048,0.012612,0.013698,0.00020037,0,0,0.050311,-0.0028238,0,0.0010419,0,0,0,0.033051,0.012609,0.013698,0.55815,0.019786,0.019921,4.0196e-07,0.04,0.51,0
0.0024778,2.4954e-05,0.033203,0.012234,0.013631,0.0003255,0,0,0.050887,-0.0036328,0,0.0016926,0,0,0,0.033209,0.012228,0.013631,0.88575,0.019689,0.020317,4.2384e-07,0.05,0.51,0
0.0029896,4.8336e-05,0.033369,0.01184,0.013563,0.0004558,0,0,0.051497,-0.0044795,0,0.0023702,0,0,0,0.03338,0.011829,0.013563,1.2094,0.019591,0.020739,4.4743e-07,0.06,0.51,0
0.0035077,7.7471e-05,0.03355,0.011436,0.013496,0.00058858,0,0,0.052141,-0.0053564,0,0.0030606,0,0,0,0.033567,0.011419,0.013496,1.5212,0.019494,0.021187,4.7275e-07,0.07,0.51,0
0.0040324,0.00011159,0.033749,0.01103,0.013434,0.0007206,0,0,0.052819,-0.0062495,0,0.0037471,0,0,0,0.033773,0.011006,0.013434,1.8136,0.019404,0.021656,4.9971e-07,0.08,0.51,0
0.0045641,0.00014953,0.033969,0.01064,0.013383,0.00084777,0,0,0.053524,-0.0071318,0,0.0044084,0,0,0,0.034001,0.010607,0.013383,2.0786,0.01933,0.022138,5.2797e-07,0.09,0.51,0
0.0051029,0.00018967,0.034213,0.010294,0.013352,0.00096484,0,0,0.054239,-0.0079512,0,0.0050172,0,0,0,0.034254,0.010254,0.013352,2.3083,0.019287,0.022611,5.5657e-07,0.1,0.51,0
0.0056489,0.00022976,0.034472,0.010044,0.013355,0.0010665,0,0,0.054905,-0.0086083,0,0.005546,0,0,0,0.03452,0.0099955,0.013355,2.4997,0.01929,0.02303,5.8291e-07,0.11,0.51,0
0.006201,0.00026696,0.034695,0.0099887,0.013405,0.0011441,0,0,0.055354,-0.0088828,0,0.0059495,0,0,0,0.03475,0.0099343,0.013405,2.6525,0.019363,0.023275,5.9981e-07,0.12,0.51,0
0.006756,0.00029717,0.034785,0.0098781,0.013399,0.001141,0,0,0.052072,-0.0083084,0,0.0057228,0,0,0,0.034841,0.0098222,0.013399,2.6409,0.019354,0.023442,6.0948e-07,0.13,0.51,0
0.0072424,0.00030561,0.03479,0.0094075,0.013259,0.0010387,0,0,0.041844,-0.0069399,0,0.0043799,0,0,0,0.034839,0.0093586,0.013259,2.3752,0.019152,0.023782,6.2703e-07,0.14,0.51,0
0.0075928,0.00027814,0.034834,0.0089167,0.013125,0.00092247,0,0,0.03168,-0.0058938,0,0.0028494,0,0,0,0.034871,0.0088801,0.013125,2.0493,0.018959,0.024155,6.4887e-07,0.15,0.51,0
0.007876,0.00022579,0.034871,0.0086633,0.01306,0.00089079,0,0,0.028354,-0.0057161,0,0.0023161,0,0,0,0.034902,0.0086322,0.01306,1.9429,0.018865,0.02436,6.6145e-07,0.16,0.51,0
0.0081599,0.00016638,0.034891,0.0085006,0.013017,0.00098036,0,0,0.028435,-0.0058719,0,0.0025489,0,0,0,0.034928,0.0084636,0.013017,2.1249,0.018803,0.024507,6.6943e-07,0.17,0.51,0
0.0084447,0.00010574,0.034939,0.0082819,0.012966,0.0011005,0,0,0.028565,-0.0060897,0,0.0028613,0,0,0,0.034985,0.0082361,0.012966,2.3606,0.018729,0.024726,6.8178e-07,0.18,0.51,0
0.0087312,4.4557e-05,0.035017,0.007962,0.012894,0.0011686,0,0,0.02876,-0.0064112,0,0.0030382,0,0,0,0.035068,0.0079113,0.012894,2.4693,0.018624,0.02504,7.0003e-07,0.19,0.51,0
0.00902,-1.7473e-05,0.035118,0.007583,0.01281,0.0011921,0,0,0.029,-0.0067955,0,0.0030994,0,0,0,0.03517,0.0075313,0.01281,2.4752,0.018504,0.025414,7.2196e-07,0.2,0.51,0
0.0093112,-8.0635e-05,0.035219,0.007173,0.012717,0.0011826,0,0,0.029251,-0.0072078,0,0.0030748,0,0,0,0.035269,0.007123,0.012717,2.4114,0.01837,0.025808,7.4486e-07,0.21,0.51,0
0.009605,-0.0001452,0.035304,0.0067427,0.012614,0.0011463,0,0,0.029497,-0.0076329,0,0.0029803,0,0,0,0.035351,0.0066966,0.012614,2.2958,0.01822,0.026202,7.6735e-07,0.22,0.51,0
0.0099012,-0.00021141,0.035373,0.0062963,0.012501,0.001088,0,0,0.029734,-0.0080658,0,0.0028289,0,0,0,0.035414,0.0062554,0.012501,2.1414,0.018057,0.026592,7.8905e-07,0.23,0.51,0
0.0102,-0.00027949,0.035425,0.0058355,0.012378,0.0010131,0,0,0.029961,-0.0085055,0,0.0026342,0,0,0,0.03546,0.0058006,0.012378,1.9603,0.01788,0.026979,8.0997e-07,0.24,0.51,0
0.0105,-0.00034959,0.035463,0.0053618,0.012247,0.00092635,0,0,0.03018,-0.0089514,0,0.0024085,0,0,0,0.035492,0.0053331,0.012247,1.7626,0.017691,0.027365,8.302e-07,0.25,0.51,0
0.010803,-0.00042178,0.035489,0.0048766,0.01211,0.00083192,0,0,0.030393,-0.009403,0,0.002163,0,0,0,0.035512,0.0048538,0.01211,1.5572,0.017492,0.027751,8.498e-07,0.26,0.51,0
0.011108,-0.00049608,0.035504,0.0043815,0.011966,0.00073342,0,0,0.0306,-0.0098594,0,0.0019069,0,0,0,0.035522,0.004364,0.011966,1.3508,0.017284,0.028138,8.6878e-07,0.27,0.51,0
0.011415,-0.00057244,0.035509,0.0038785,0.011816,0.00063388,0,0,0.030801,-0.010319,0,0.0016481,0,0,0,0.035522,0.0038656,0.011816,1.1492,0.017068,0.028525,8.8708e-07,0.28,0.51,0
0.011724,-0.00065074,0.035504,0.0033698,0.011662,0.00053582,0,0,0.030995,-0.01078,0,0.0013931,0,0,0,0.035513,0.0033607,0.011662,0.9565,0.016845,0.028911,9.046e-07,0.29,0.51,0
0.012035,-0.00073081,0.03549,0.0028583,0.011504,0.00044126,0,0,0.031181,-0.01124,0,0.0011473,0,0,0,0.035496,0.0028522,0.011504,0.77597,0.016618,0.029292,9.2118e-07,0.3,0.51,0
0.012348,-0.00081243,0.035465,0.0023473,0.011344,0.00035162,0,0,0.031358,-0.011695,0,0.0009142,0,0,0,0.035469,0.0023434,0.011344,0.6095,0.016385,0.029668,9.3663e-07,0.31,0.51,0
0.012662,-0.00089536,0.035429,0.0018402,0.011181,0.00026773,0,0,0.031523,-0.012143,0,0.00069611,0,0,0,0.035432,0.0018379,0.011181,0.45783,0.01615,0.030033,9.5072e-07,0.32,0.51,0
0.012978,-0.0009793,0.035383,0.0013401,0.011017,0.00018988,0,0,0.031676,-0.01258,0,0.00049368,0,0,0,0.035384,0.0013389,0.011017,0.32064,0.015913,0.030385,9.6331e-07,0.33,0.51,0
0.013296,-0.0010639,0.035326,0.00084958,0.010853,0.00011795,0,0,0.031815,-0.013004,0,0.00030667,0,0,0,0.035326,0.00084904,0.010853,0.19704,0.015676,0.030722,9.7429e-07,0.34,0.51,0
0.013615,-0.0011489,0.035259,0.0003703,0.010689,5.1833e-05,0,0,0.031941,-0.013414,0,0.00013477,0,0,0,0.035259,0.00037009,0.010689,0.086101,0.015439,0.031044,9.8369e-07,0.35,0.51,0
0.013935,-0.0012339,0.035185,-9.7376e-05,0.010526,-8.1102e-06,0,0,0.032056,-0.013811,0,-2.1087e-05,0,0,0,0.035185,-9.7515e-05,0.010526,-0.012232,0.015204,0.031351,9.9166e-07,0.36,0.51,0
0.014256,-0.0013185,0.035105,-0.00055416,0.010365,-6.0483e-05,0,0,0.032162,-0.014195,0,-0.00015726,0,0,0,0.035106,-0.00055439,0.010365,-0.096301,0.014972,0.031646,9.9847e-07,0.37,0.51,0
0.014578,-0.0014023,0.035025,-0.0010013,0.010207,-0.00010236,0,0,0.032264,-0.014571,0,-0.00026615,0,0,0,0.035026,-0.0010017,0.010207,-0.16202,0.014744,0.031934,1.0045e-06,0.38,0.51,0
0.014901,-0.0014847,0.034948,-0.0014399,0.010053,-0.00012908,0,0,0.032365,-0.01494,0,-0.00033562,0,0,0,0.034949,-0.0014405,0.010053,-0.20265,0.01452,0.032219,1.01e-06,0.39,0.51,0
0.015225,-0.001565,0.034878,-0.0018693,0.0099025,-0.00013453,0,0,0.032468,-0.015303,0,-0.00034978,0,0,0,0.034878,-0.0018699,0.0099025,-0.20942,0.014304,0.032502,1.0154e-06,0.4,0.51,0
0.01555,-0.0016426,0.034816,-0.0022861,0.0097589,-0.0001123,0,0,0.032574,-0.015658,0,-0.00029198,0,0,0,0.034816,-0.0022865,0.0097589,-0.17339,0.014096,0.032784,1.0208e-06,0.41,0.51,0
0.015877,-0.0017166,0.034765,-0.0026829,0.0096248,-5.781e-05,0,0,0.032683,-0.016,0,-0.00015031,0,0,0,0.034766,-0.0026831,0.0096248,-0.088725,0.013902,0.03306,1.0263e-06,0.42,0.51,0
0.016204,-0.0017862,0.034732,-0.00305,0.0095046,2.9041e-05,0,0,0.032796,-0.016321,0,7.5506e-05,0,0,0,0.034732,-0.0030502,0.0095046,0.043499,0.013729,0.033328,1.0322e-06,0.43,0.51,0
0.016533,-0.0018508,0.034729,-0.0033792,0.0094048,0.00014379,0,0,0.032921,-0.016619,0,0.00037385,0,0,0,0.034729,-0.00338,0.0094048,0.21538,0.013585,0.033594,1.0396e-06,0.44,0.51,0
0.016862,-0.0019097,0.034769,-0.0036745,0.0093285,0.00028509,0,0,0.033073,-0.016904,0,0.00074124,0,0,0,0.034772,-0.003677,0.0093285,0.42376,0.013474,0.033874,1.0501e-06,0.45,0.51,0
0.017194,-0.0019625,0.034818,-0.0039366,0.0092643,0.00045028,0,0,0.033219,-0.017161,0,0.0011707,0,0,0,0.034823,-0.0039424,0.0092643,0.66487,0.013382,0.034136,1.0605e-06,0.46,0.51,0
0.017527,-0.0020097,0.034851,-0.003968,0.0092649,0.00052985,0,0,0.033262,-0.017203,0,0.0013776,0,0,0,0.034859,-0.0039759,0.0092649,0.78156,0.013383,0.034194,1.0643e-06,0.47,0.51,0
0.017859,-0.0020581,0.034877,-0.0028042,0.0096217,0.00040745,0,0,0.036613,-0.017276,0,0.0010316,0,0,0,0.034883,-0.0028109,0.0096217,0.59796,0.013898,0.033292,1.0298e-06,0.48,0.51,0
0.018259,-0.0021181,0.034912,-2.5933e-06,0.010473,0.00022707,0,0,0.046979,-0.018524,0,0.00063492,0,0,0,0.034916,-6.8525e-06,0.010473,0.3396,0.015128,0.031089,9.4742e-07,0.49,0.51,0
0.018799,-0.0021859,0.035005,0.0022786,0.011185,0.00026058,0,0,0.057798,-0.020912,0,0.0012178,0,0,0,0.03501,0.0022744,0.011185,0.44413,0.016156,0.029336,8.9382e-07,0.5,0.51,0
0.019415,-0.0022436,0.035075,0.0024241,0.01125,0.00055734,0,0,0.061945,-0.022946,0,0.0028982,0,0,0,0.035087,0.0024122,0.01125,0.9689,0.01625,0.029275,9.0338e-07,0.51,0.51,0
0.020038,-0.0022803,0.035033,0.0017327,0.01103,0.00091841,0,0,0.062408,-0.024172,0,0.0047757,0,0,0,0.03506,0.0017057,0.01103,1.5744,0.015932,0.029807,9.2473e-07,0.52,0.51,0
0.020663,-0.0022964,0.034932,0.0012443,0.010853,0.001199,0,0,0.062605,-0.024982,0,0.0062346,0,0,0,0.034975,0.0012007,0.010853,2.0342,0.015676,0.030131,9.3425e-07,0.53,0.51,0
0.02129,-0.0022951,0.034822,0.00089128,0.010714,0.0013936,0,0,0.062681,-0.025539,0,0.0072467,0,0,0,0.03488,0.00083362,0.010714,2.3478,0.015476,0.030338,9.3809e-07,0.54,0.51,0
0.021917,-0.0022795,0.034716,0.00063816,0.010606,0.001518,0,0,0.062685,-0.025917,0,0.0078935,0,0,0,0.034784,0.00057036,0.010606,2.546,0.01532,0.030462,9.3842e-07,0.55,0.51,0
0.022544,-0.0022523,0.034615,0.00046074,0.010523,0.0015865,0,0,0.06264,-0.026161,0,0.0082498,0,0,0,0.034689,0.000387,0.010523,2.6546,0.0152,0.030523,9.3627e-07,0.56,0.51,0
0.02317,-0.0022161,0.03452,0.0003411,0.010458,0.0016109,0,0,0.062561,-0.026305,0,0.0083768,0,0,0,0.034596,0.00026517,0.010458,2.6934,0.015107,0.030538,9.3237e-07,0.57,0.51,0
0.023795,-0.0021729,0.034432,0.00026497,0.010409,0.0016006,0,0,0.062459,-0.026374,0,0.0083232,0,0,0,0.034507,0.00018998,0.010409,2.6772,0.015035,0.030518,9.2733e-07,0.58,0.51,0
0.024419,-0.0021247,0.03435,0.0002207,0.010371,0.001563,0,0,0.062345,-0.026391,0,0.0081278,0,0,0,0.034422,0.0001491,0.010371,2.6174,0.014981,0.030476,9.2166e-07,0.59,0.51,0
0.025042,-0.0020729,0.034276,0.00019872,0.010342,0.0015042,0,0,0.062227,-0.026374,0,0.0078216,0,0,0,0.034342,0.00013228,0.010342,2.5231,0.014939,0.030419,9.1577e-07,0.6,0.51,0
0.025663,-0.0020189,0.03421,0.0001912,0.01032,0.0014288,0,0,0.062113,-0.026336,0,0.00743,0,0,0,0.03427,0.00013111,0.01032,2.4013,0.014907,0.030355,9.1001e-07,0.61,0.51,0
0.026284,-0.0019639,0.034153,0.00019183,0.010303,0.0013412,0,0,0.062008,-0.02629,0,0.0069743,0,0,0,0.034206,0.00013876,0.010303,2.2584,0.014883,0.030292,9.0466e-07,0.62,0.51,0
0.026904,-0.0019088,0.034104,0.00019565,0.01029,0.0012447,0,0,0.061917,-0.026245,0,0.0064726,0,0,0,0.03415,0.00014984,0.01029,2.0997,0.014863,0.030233,8.9989e-07,0.63,0.51,0
0.027522,-0.0018544,0.034064,0.00019889,0.010279,0.0011425,0,0,0.061841,-0.026208,0,0.0059408,0,0,0,0.034103,0.00016021,0.010279,1.9302,0.014847,0.030183,8.9585e-07,0.64,0.51,0
0.02814,-0.0018013,0.034032,0.00019882,0.010269,0.001037,0,0,0.061784,-0.026183,0,0.0053926,0,0,0,0.034064,0.00016688,0.010269,1.7541,0.014834,0.030144,8.9263e-07,0.65,0.51,0
0.028758,-0.0017501,0.034009,0.00019358,0.010261,0.00093078,0,0,0.061745,-0.026174,0,0.0048401,0,0,0,0.034034,0.0001678,0.010261,1.5756,0.014821,0.030117,8.9024e-07,0.66,0.51,0
0.029375,-0.0017011,0.033992,0.00018208,0.010252,0.00082563,0,0,0.061724,-0.026183,0,0.0042933,0,0,0,0.034013,0.00016177,0.010252,1.3981,0.014809,0.030102,8.8868e-07,0.67,0.51,0
0.029992,-0.0016546,0.033982,0.00016383,0.010244,0.00072321,0,0,0.06172,-0.026208,0,0.0037607,0,0,0,0.033998,0.00014822,0.010244,1.2246,0.014797,0.0301,8.8791e-07,0.68,0.51,0
0.03061,-0.0016108,0.033978,0.00013878,0.010235,0.00062485,0,0,0.061732,-0.02625,0,0.0032492,0,0,0,0.03399,0.00012711,0.010235,1.0576,0.014784,0.030109,8.8787e-07,0.69,0.51,0
0.031227,-0.0015697,0.033979,0.00010725,0.010226,0.00053157,0,0,0.061758,-0.026308,0,0.0027642,0,0,0,0.033988,9.8782e-05,0.010226,0.89896,0.014771,0.03013,8.8849e-07,0.7,0.51,0
0.031845,-0.0015315,0.033984,6.9783e-05,0.010216,0.00044416,0,0,0.061796,-0.026381,0,0.0023096,0,0,0,0.03399,6.3859e-05,0.010216,0.75027,0.014757,0.03016,8.8966e-07,0.71,0.51,0
0.032463,-0.0014961,0.033992,2.7102e-05,0.010206,0.00036312,0,0,0.061845,-0.026465,0,0.0018882,0,0,0,0.033996,2.3128e-05,0.010206,0.61252,0.014742,0.030198,8.9131e-07,0.72,0.51,0
0.033082,-0.0014634,0.034003,-1.9993e-05,0.010195,0.00028878,0,0,0.061901,-0.026559,0,0.0015017,0,0,0,0.034006,-2.2521e-05,0.010195,0.48635,0.014726,0.030243,8.9333e-07,0.73,0.51,0
0.033701,-0.0014334,0.034016,-7.0661e-05,0.010184,0.0002213,0,0,0.061964,-0.026661,0,0.0011507,0,0,0,0.034018,-7.2161e-05,0.010184,0.37203,0.01471,0.030293,8.9565e-07,0.74,0.51,0
0.034321,-0.0014059,0.03403,-0.00012406,0.010172,0.00016066,0,0,0.062032,-0.026769,0,0.00083543,0,0,0,0.034031,-0.00012487,0.010172,0.26958,0.014693,0.030347,8.9819e-07,0.75,0.51,0
0.034942,-0.0013809,0.034045,-0.00017939,0.01016,0.00010675,0,0,0.062102,-0.026882,0,0.00055512,0,0,0,0.034045,-0.00017977,0.01016,0.17879,0.014675,0.030404,9.0087e-07,0.76,0.51,0
0.035563,-0.0013582,0.03406,-0.0002359,0.010147,5.937e-05,0,0,0.062174,-0.026996,0,0.00030872,0,0,0,0.03406,-0.00023603,0.010147,0.099249,0.014657,0.030462,9.0363e-07,0.77,0.51,0
0.036185,-0.0013376,0.034075,-0.00029288,0.010135,1.8228e-05,0,0,0.062246,-0.027112,0,9.4786e-05,0,0,0,0.034075,-0.00029291,0.010135,0.030447,0.014639,0.030521,9.0641e-07,0.78,0.51,0
0.036808,-0.001319,0.03409,-0.00034972,0.010122,-1.7e-05,0,0,0.062317,-0.027227,0,-8.8402e-05,0,0,0,0.03409,-0.00034975,0.010122,-0.02823,0.014621,0.03058,9.0917e-07,0.79,0.51,0
0.037431,-0.0013023,0.034105,-0.00040587,0.01011,-4.6678e-05,0,0,0.062387,-0.02734,0,-0.00024272,0,0,0,0.034105,-0.00040595,0.01011,-0.077451,0.014603,0.030638,9.1187e-07,0.8,0.51,0
0.038056,-0.0012873,0.034118,-0.00046085,0.010097,-7.1186e-05,0,0,0.062454,-0.027451,0,-0.00037017,0,0,0,0.034118,-0.00046101,0.010097,-0.11791,0.014585,0.030694,9.1447e-07,0.81,0.51,0
0.038681,-0.0012739,0.034131,-0.00051426,0.010085,-9.0915e-05,0,0,0.062519,-0.027558,0,-0.00047276,0,0,0,0.034131,-0.0005145,0.010085,-0.15032,0.014567,0.030748,9.1696e-07,0.82,0.51,0
0.039306,-0.0012619,0.034142,-0.00056574,0.010073,-0.00010625,0,0,0.06258,-0.027661,0,-0.00055252,0,0,0,0.034143,-0.00056607,0.010073,-0.17538,0.01455,0.0308,9.1932e-07,0.83,0.51,0
0.039932,-0.0012512,0.034153,-0.00061502,0.010061,-0.00011759,0,0,0.062638,-0.027759,0,-0.00061145,0,0,0,0.034153,-0.00061542,0.010061,-0.19375,0.014533,0.030849,9.2153e-07,0.84,0.51,0
0.040559,-0.0012418,0.034163,-0.00066186,0.01005,-0.00012528,0,0,0.062692,-0.027851,0,-0.00065146,0,0,0,0.034163,-0.00066231,0.01005,-0.2061,0.014517,0.030895,9.2359e-07,0.85,0.51,0
0.041186,-0.0012334,0.034171,-0.00070607,0.01004,-0.00012969,0,0,0.062742,-0.027938,0,-0.00067439,0,0,0,0.034172,-0.00070655,0.01004,-0.21304,0.014501,0.030938,9.2549e-07,0.86,0.51,0
0.041814,-0.001226,0.034179,-0.0007475,0.010029,-0.00013115,0,0,0.062788,-0.02802,0,-0.00068199,0,0,0,0.034179,-0.00074799,0.010029,-0.21514,0.014487,0.030978,9.2723e-07,0.87,0.51,0
0.042442,-0.0012195,0.034185,-0.00078604,0.01002,-0.00012998,0,0,0.06283,-0.028095,0,-0.0006759,0,0,0,0.034186,-0.00078653,0.01002,-0.21295,0.014473,0.031015,9.2881e-07,0.88,0.51,0
0.04307,-0.0012138,0.034191,-0.00082162,0.010011,-0.00012647,0,0,0.062869,-0.028164,0,-0.00065765,0,0,0,0.034192,-0.00082208,0.010011,-0.20695,0.01446,0.031048,9.3024e-07,0.89,0.51,0
0.043699,-0.0012089,0.034196,-0.00085416,0.010003,-0.0001209,0,0,0.062903,-0.028228,0,-0.00062867,0,0,0,0.034197,-0.00085458,0.010003,-0.19763,0.014448,0.031079,9.3152e-07,0.9,0.51,0
0.044328,-0.0012046,0.0342,-0.00088363,0.009995,-0.00011352,0,0,0.062934,-0.028285,0,-0.0005903,0,0,0,0.034201,-0.000884,0.009995,-0.18539,0.014437,0.031106,9.3265e-07,0.91,0.51,0
0.044958,-0.0012009,0.034204,-0.00091001,0.0099882,-0.00010457,0,0,0.062961,-0.028335,0,-0.00054376,0,0,0,0.034204,-0.00091032,0.0099882,-0.17063,0.014427,0.031131,9.3364e-07,0.92,0.51,0
0.045588,-0.0011978,0.034207,-0.00093327,0.0099821,-9.4271e-05,0,0,0.062984,-0.02838,0,-0.00049021,0,0,0,0.034207,-0.00093352,0.0099821,-0.15371,0.014419,0.031152,9.345e-07,0.93,0.51,0
0.046218,-0.0011952,0.034209,-0.00095342,0.0099768,-8.2825e-05,0,0,0.063005,-0.028418,0,-0.00043069,0,0,0,0.034209,-0.00095361,0.0099768,-0.13496,0.014411,0.03117,9.3523e-07,0.94,0.51,0
0.046848,-0.001193,0.034211,-0.00097045,0.0099722,-7.0424e-05,0,0,0.063021,-0.028451,0,-0.00036621,0,0,0,0.034211,-0.00097059,0.0099722,-0.11469,0.014404,0.031185,9.3584e-07,0.95,0.51,0
0.047478,-0.0011913,0.034213,-0.00098437,0.0099685,-5.7245e-05,0,0,0.063035,-0.028477,0,-0.00029768,0,0,0,0.034213,-0.00098447,0.0099685,-0.093189,0.014399,0.031198,9.3633e-07,0.96,0.51,0
0.048108,-0.00119,0.034214,-0.00099519,0.0099656,-4.3457e-05,0,0,0.063045,-0.028498,0,-0.00022597,0,0,0,0.034214,-0.00099525,0.0099656,-0.070719,0.014395,0.031207,9.3671e-07,0.97,0.51,0
0.048739,-0.0011891,0.034215,-0.0010029,0.0099635,-2.9218e-05,0,0,0.063053,-0.028513,0,-0.00015193,0,0,0,0.034215,-0.0010029,0.0099635,-0.047536,0.014392,0.031214,9.3698e-07,0.98,0.51,0
0.049369,-0.0011885,0.034215,-0.0010075,0.0099623,-1.3818e-05,0,0,0.063057,-0.028521,0,-7.1852e-05,0,0,0,0.034215,-0.0010076,0.0099623,-0.022477,0.01439,0.031218,9.3714e-07,0.99,0.51,0
0.049685,-0.0011884,0.034215,-0.0010091,0.0099618,-5.6298e-06,0,0,0.063059,-0.028524,0,-2.9275e-05,0,0,0,0.034215,-0.0010091,0.0099618,-0.009157,0.014389,0.03122,9.3719e-07,1,0.51,0
0.0002419,-6.9512e-06,0.032549,0.013757,0.013892,-0.0002571,0,0,0.048509,-0.00035042,0,-0.0013369,0,0,0,0.032553,0.013753,0.013892,-0.78444,0.020066,0.018731,3.3747e-07,0,0.52,0
0.00048509,-1.2624e-05,0.032577,0.013573,0.013845,-0.00023131,0,0,0.048703,-0.00070676,0,-0.0012028,0,0,0,0.032581,0.01357,0.013845,-0.69941,0.019999,0.018875,3.4514e-07,0.01,0.52,0
0.00097406,-2.1265e-05,0.032679,0.013217,0.013769,-0.00016049,0,0,0.049166,-0.0014338,0,-0.00083453,0,0,0,0.032681,0.013215,0.013769,-0.47584,0.019888,0.019196,3.6229e-07,0.02,0.52,0
0.0014684,-2.4278e-05,0.032831,0.012865,0.013709,-6.4295e-05,0,0,0.049717,-0.0021932,0,-0.00033433,0,0,0,0.032832,0.012864,0.013709,-0.18803,0.019802,0.01956,3.8198e-07,0.03,0.52,0
0.0019684,-2.1355e-05,0.032995,0.012498,0.013648,4.1875e-05,0,0,0.050302,-0.0029904,0,0.00021775,0,0,0,0.032996,0.012496,0.013648,0.11356,0.019713,0.01995,4.0325e-07,0.04,0.52,0
0.0024745,-1.2437e-05,0.033173,0.012114,0.013586,0.00015396,0,0,0.050926,-0.003827,0,0.00080059,0,0,0,0.033176,0.012112,0.013586,0.41556,0.019625,0.020367,4.2633e-07,0.05,0.52,0
0.0029869,2.3069e-06,0.03337,0.011719,0.013527,0.00026855,0,0,0.051593,-0.0047009,0,0.0013965,0,0,0,0.033375,0.011714,0.013527,0.7076,0.019538,0.020815,4.514e-07,0.06,0.52,0
0.0035063,2.2485e-05,0.033588,0.011315,0.013471,0.00038232,0,0,0.052305,-0.0056054,0,0.0019881,0,0,0,0.033596,0.011307,0.013471,0.98076,0.019458,0.021291,4.7856e-07,0.07,0.52,0
0.004033,4.7467e-05,0.033833,0.010914,0.013424,0.00049159,0,0,0.053063,-0.0065259,0,0.0025563,0,0,0,0.033845,0.010902,0.013424,1.2267,0.01939,0.021793,5.0775e-07,0.08,0.52,0
0.0045676,7.6368e-05,0.034107,0.010533,0.013392,0.00059228,0,0,0.053859,-0.007434,0,0.0030798,0,0,0,0.034124,0.010516,0.013392,1.4377,0.019344,0.02231,5.3867e-07,0.09,0.52,0
0.0051102,0.00010806,0.034414,0.010201,0.013384,0.00068083,0,0,0.054677,-0.0082777,0,0.0035403,0,0,0,0.034435,0.010179,0.013384,1.6097,0.019333,0.022824,5.7043e-07,0.1,0.52,0
0.0056611,0.00014132,0.034758,0.0099724,0.013419,0.00075881,0,0,0.05548,-0.0089611,0,0.0039458,0,0,0,0.034783,0.0099465,0.013419,1.7532,0.019383,0.023296,6.0119e-07,0.11,0.52,0
0.0062198,0.00017534,0.035131,0.0099429,0.013522,0.00084649,0,0,0.056182,-0.0093058,0,0.0044018,0,0,0,0.035162,0.0099115,0.013522,1.9252,0.019532,0.023653,6.2686e-07,0.12,0.52,0
0.0067848,0.00021097,0.035629,0.0098725,0.01365,0.00082292,0,0,0.05325,-0.0088802,0,0.004258,0,0,0,0.035664,0.0098369,0.01365,1.8785,0.019717,0.024153,6.7343e-07,0.13,0.52,0
0.0072885,0.00023367,0.03574,0.0094328,0.013552,0.00086259,0,0,0.043475,-0.0075508,0,0.0036993,0,0,0,0.03579,0.0093827,0.013552,1.997,0.019575,0.0246,7.1738e-07,0.14,0.52,0
0.0076596,0.0002172,0.035366,0.0089039,0.013281,0.0010896,0,0,0.0334,-0.0063574,0,0.0035147,0,0,0,0.035431,0.0088391,0.013281,2.4667,0.019184,0.024678,7.1222e-07,0.15,0.52,0
0.0079562,0.00016646,0.035345,0.00861,0.013187,0.0011093,0,0,0.02942,-0.0060486,0,0.0030615,0,0,0,0.035398,0.0085575,0.013187,2.4087,0.019047,0.024851,7.0458e-07,0.16,0.52,0
0.008246,0.00010588,0.035399,0.0084572,0.013157,0.0010337,0,0,0.028915,-0.0061097,0,0.0026876,0,0,0,0.03544,0.008417,0.013157,2.1926,0.019005,0.024992,7.0581e-07,0.17,0.52,0
0.0085345,4.3834e-05,0.035263,0.008246,0.013053,0.0010626,0,0,0.028873,-0.0062486,0,0.0027627,0,0,0,0.035305,0.0082041,0.013053,2.2488,0.018854,0.025031,7.0476e-07,0.18,0.52,0
0.0088235,-2.0126e-05,0.035247,0.0079325,0.012954,0.0010861,0,0,0.028981,-0.0065277,0,0.0028239,0,0,0,0.03529,0.0078893,0.012954,2.274,0.018711,0.025253,7.1625e-07,0.19,0.52,0
0.0091141,-8.5722e-05,0.035293,0.007576,0.012861,0.0011057,0,0,0.029162,-0.0068701,0,0.0028748,0,0,0,0.035337,0.0075318,0.012861,2.2814,0.018577,0.025561,7.3369e-07,0.2,0.52,0
0.0094067,-0.00015279,0.03535,0.007193,0.012763,0.0011079,0,0,0.029363,-0.0072408,0,0.0028806,0,0,0,0.035393,0.0071494,0.012763,2.2506,0.018435,0.025898,7.5274e-07,0.21,0.52,0
0.0097013,-0.00022143,0.0354,0.0067874,0.012656,0.0010861,0,0,0.029567,-0.0076295,0,0.0028239,0,0,0,0.035441,0.0067461,0.012656,2.1717,0.018281,0.026244,7.72e-07,0.22,0.52,0
0.009998,-0.00029184,0.03544,0.0063602,0.01254,0.0010416,0,0,0.02977,-0.0080339,0,0.0027082,0,0,0,0.035477,0.0063228,0.01254,2.05,0.018113,0.026597,7.9114e-07,0.23,0.52,0
0.010297,-0.00036421,0.03547,0.0059134,0.012415,0.00097908,0,0,0.029972,-0.0084522,0,0.0025456,0,0,0,0.035503,0.0058809,0.012415,1.8965,0.017933,0.026956,8.1008e-07,0.24,0.52,0
0.010597,-0.0004387,0.03549,0.0054492,0.012282,0.00090351,0,0,0.030171,-0.0088825,0,0.0023491,0,0,0,0.035518,0.0054219,0.012282,1.7226,0.01774,0.02732,8.2878e-07,0.25,0.52,0
0.0109,-0.00051536,0.035501,0.0049696,0.012141,0.00081941,0,0,0.030368,-0.009323,0,0.0021305,0,0,0,0.035523,0.0049475,0.012141,1.5377,0.017537,0.027689,8.4713e-07,0.26,0.52,0
0.011205,-0.00059419,0.035502,0.0044769,0.011994,0.00073067,0,0,0.030561,-0.0097718,0,0.0018997,0,0,0,0.035519,0.0044595,0.011994,1.3498,0.017324,0.028062,8.6506e-07,0.27,0.52,0
0.011511,-0.00067512,0.035493,0.0039732,0.01184,0.00064069,0,0,0.030749,-0.010227,0,0.0016658,0,0,0,0.035507,0.00396,0.01184,1.1654,0.017102,0.028438,8.8242e-07,0.28,0.52,0
0.01182,-0.00075802,0.035475,0.0034614,0.011681,0.00055244,0,0,0.030932,-0.010685,0,0.0014363,0,0,0,0.035485,0.0034517,0.011681,0.98968,0.016872,0.028814,8.9904e-07,0.29,0.52,0
0.01213,-0.00084268,0.035446,0.0029449,0.011517,0.00046833,0,0,0.031107,-0.011144,0,0.0012177,0,0,0,0.035452,0.002938,0.011517,0.82666,0.016636,0.029187,9.1467e-07,0.3,0.52,0
0.012442,-0.00092886,0.035404,0.0024275,0.01135,0.00039009,0,0,0.031271,-0.011599,0,0.0010142,0,0,0,0.035409,0.0024228,0.01135,0.67878,0.016394,0.029553,9.2905e-07,0.31,0.52,0
0.012755,-0.0010163,0.03535,0.0019137,0.011179,0.00031852,0,0,0.031423,-0.012045,0,0.00082815,0,0,0,0.035354,0.0019105,0.011179,0.54678,0.016148,0.029907,9.4189e-07,0.32,0.52,0
0.01307,-0.0011045,0.035283,0.0014072,0.011007,0.0002535,0,0,0.031559,-0.01248,0,0.00065909,0,0,0,0.035285,0.0014052,0.011007,0.4297,0.015899,0.030245,9.5294e-07,0.33,0.52,0
0.013387,-0.0011934,0.035201,0.00091127,0.010834,0.00019409,0,0,0.031678,-0.012899,0,0.00050464,0,0,0,0.035203,0.00091,0.010834,0.32525,0.015649,0.030564,9.6207e-07,0.34,0.52,0
0.013704,-0.0012825,0.035107,0.00042749,0.01066,0.000139,0,0,0.031781,-0.013303,0,0.00036141,0,0,0,0.035108,0.00042673,0.01066,0.23063,0.015398,0.030864,9.6929e-07,0.35,0.52,0
0.014022,-0.0013714,0.035003,-4.4426e-05,0.010487,8.7197e-05,0,0,0.03187,-0.013691,0,0.00022671,0,0,0,0.035003,-4.4861e-05,0.010487,0.14357,0.015149,0.031148,9.7483e-07,0.36,0.52,0
0.014341,-0.0014599,0.034892,-0.00050657,0.010316,3.8714e-05,0,0,0.031949,-0.014069,0,0.00010066,0,0,0,0.034892,-0.00050684,0.010316,0.063728,0.0149,0.031419,9.791e-07,0.37,0.52,0
0.014661,-0.0015474,0.034781,-0.00096234,0.010145,-4.4872e-06,0,0,0.032026,-0.01444,0,-1.1667e-05,0,0,0,0.034781,-0.00096255,0.010145,-0.0061377,0.014655,0.031685,9.8264e-07,0.38,0.52,0
0.014982,-0.0016335,0.034674,-0.0014151,0.0099777,-3.795e-05,0,0,0.032106,-0.014811,0,-9.8669e-05,0,0,0,0.034675,-0.0014153,0.0099777,-0.059308,0.014412,0.031955,9.8607e-07,0.39,0.52,0
0.015303,-0.0017175,0.034579,-0.0018664,0.0098137,-5.4723e-05,0,0,0.032195,-0.015184,0,-0.00014228,0,0,0,0.034579,-0.0018666,0.0098137,-0.085339,0.014175,0.032234,9.8988e-07,0.4,0.52,0
0.015626,-0.0017987,0.034498,-0.0023135,0.0096554,-4.6475e-05,0,0,0.032296,-0.015559,0,-0.00012084,0,0,0,0.034498,-0.0023136,0.0096554,-0.072011,0.013947,0.032524,9.9432e-07,0.41,0.52,0
0.015949,-0.0018763,0.034433,-0.0027467,0.0095058,-6.4554e-06,0,0,0.032405,-0.015928,0,-1.6784e-05,0,0,0,0.034433,-0.0027467,0.0095058,-0.010011,0.013731,0.032816,9.9929e-07,0.42,0.52,0
0.016274,-0.0019493,0.034384,-0.0031478,0.0093708,6.4927e-05,0,0,0.032517,-0.016274,0,0.00016881,0,0,0,0.034384,-0.003148,0.0093708,0.0988,0.013536,0.033099,1.0045e-06,0.43,0.52,0
0.0166,-0.002017,0.034361,-0.0034936,0.0092604,0.00015345,0,0,0.032631,-0.01658,0,0.00039898,0,0,0,0.034362,-0.0034944,0.0092604,0.23184,0.013376,0.033361,1.0105e-06,0.44,0.52,0
0.016926,-0.0020789,0.034413,-0.00377,0.0091928,0.00023735,0,0,0.032786,-0.016852,0,0.00061711,0,0,0,0.034414,-0.0037717,0.0091928,0.35524,0.013279,0.033633,1.0212e-06,0.45,0.52,0
0.017255,-0.0021347,0.034567,-0.0040227,0.0091632,0.00033544,0,0,0.033025,-0.017142,0,0.00087214,0,0,0,0.03457,-0.0040262,0.0091632,0.49568,0.013236,0.033979,1.0405e-06,0.46,0.52,0
0.017587,-0.0021823,0.034504,-0.0039169,0.0091763,0.00030613,0,0,0.03359,-0.017325,0,0.00069934,0,0,0,0.034511,-0.0039236,0.0091763,0.41701,0.013255,0.033843,1.0442e-06,0.47,0.52,0
0.017925,-0.0022304,0.034584,-0.0025428,0.0096124,0.00022884,0,0,0.03751,-0.017581,0,0.00039707,0,0,0,0.034596,-0.0025548,0.0096124,0.25774,0.013885,0.032826,1.0344e-06,0.48,0.52,0
0.018337,-0.002304,0.035086,5.4448e-05,0.010542,0.00029136,0,0,0.047685,-0.01905,0,0.00075191,0,0,0,0.035099,4.141e-05,0.010542,0.38075,0.015227,0.031202,1.0011e-06,0.49,0.52,0
0.018884,-0.0023982,0.035114,0.0019482,0.011119,0.00038377,0,0,0.057997,-0.021581,0,0.0016467,0,0,0,0.035123,0.0019389,0.011119,0.62197,0.01606,0.029697,9.2936e-07,0.5,0.52,0
0.019501,-0.0024763,0.034805,0.0020268,0.011049,0.00065521,0,0,0.061764,-0.023459,0,0.0034071,0,0,0,0.034821,0.0020101,0.011049,1.138,0.01596,0.029356,8.9578e-07,0.51,0.52,0
0.02012,-0.0025237,0.034639,0.0014334,0.010822,0.0010444,0,0,0.061925,-0.02441,0,0.0054309,0,0,0,0.034674,0.0013987,0.010822,1.7978,0.015631,0.029707,9.0386e-07,0.52,0.52,0
0.020739,-0.0025469,0.034487,0.0010287,0.010655,0.0013138,0,0,0.061963,-0.025027,0,0.0068319,0,0,0,0.034539,0.00097622,0.010655,2.245,0.01539,0.029922,9.0638e-07,0.53,0.52,0
0.021359,-0.0025503,0.034369,0.00074806,0.010535,0.0014958,0,0,0.061968,-0.025446,0,0.007778,0,0,0,0.034436,0.00068115,0.010535,2.5429,0.015217,0.030064,9.0713e-07,0.54,0.52,0
0.021979,-0.0025379,0.034273,0.0005538,0.010448,0.0016099,0,0,0.061946,-0.025725,0,0.0083714,0,0,0,0.03435,0.00047686,0.010448,2.728,0.015092,0.030151,9.0645e-07,0.55,0.52,0
0.022598,-0.0025128,0.034194,0.0004235,0.010385,0.00167,0,0,0.061903,-0.025901,0,0.0086839,0,0,0,0.034277,0.00034097,0.010385,2.825,0.015001,0.030194,9.0456e-07,0.56,0.52,0
0.023217,-0.0024777,0.034126,0.00034136,0.01034,0.0016869,0,0,0.061844,-0.025997,0,0.008772,0,0,0,0.03421,0.00025723,0.01034,2.8522,0.014936,0.030202,9.0174e-07,0.57,0.52,0
0.023835,-0.0024351,0.034068,0.00029501,0.010309,0.0016694,0,0,0.061774,-0.026036,0,0.008681,0,0,0,0.034151,0.00021259,0.010309,2.8237,0.014891,0.030184,8.9825e-07,0.58,0.52,0
0.024452,-0.0023869,0.034018,0.0002743,0.010288,0.0016246,0,0,0.061699,-0.026035,0,0.0084477,0,0,0,0.034096,0.00019616,0.010288,2.7506,0.01486,0.030149,8.944e-07,0.59,0.52,0
0.025069,-0.0023349,0.033975,0.00027076,0.010274,0.0015582,0,0,0.061624,-0.026008,0,0.0081025,0,0,0,0.034047,0.00019875,0.010274,2.6417,0.01484,0.030103,8.9047e-07,0.6,0.52,0
0.025685,-0.0022805,0.03394,0.00027737,0.010265,0.0014751,0,0,0.061554,-0.025968,0,0.0076707,0,0,0,0.034005,0.0002127,0.010265,2.5047,0.014828,0.030054,8.867e-07,0.61,0.52,0
0.0263,-0.002225,0.033912,0.0002884,0.01026,0.0013796,0,0,0.061495,-0.025926,0,0.007174,0,0,0,0.033968,0.00023172,0.01026,2.3459,0.01482,0.030007,8.833e-07,0.62,0.52,0
0.026914,-0.0021695,0.033891,0.00029934,0.010257,0.0012753,0,0,0.061448,-0.02589,0,0.0066313,0,0,0,0.033939,0.00025081,0.010257,2.1711,0.014816,0.029966,8.8046e-07,0.63,0.52,0
0.027529,-0.0021148,0.033877,0.00030679,0.010255,0.0011653,0,0,0.061416,-0.025865,0,0.0060595,0,0,0,0.033917,0.00026619,0.010255,1.9857,0.014813,0.029934,8.7829e-07,0.64,0.52,0
0.028143,-0.0020616,0.033869,0.00030837,0.010253,0.0010525,0,0,0.061401,-0.025857,0,0.0054731,0,0,0,0.033902,0.0002752,0.010253,1.7946,0.01481,0.029913,8.7686e-07,0.65,0.52,0
0.028757,-0.0020104,0.033868,0.0003026,0.010251,0.00093946,0,0,0.061404,-0.025866,0,0.0048852,0,0,0,0.033894,0.00027613,0.010251,1.602,0.014807,0.029906,8.762e-07,0.66,0.52,0
0.029371,-0.0019616,0.033872,0.00028872,0.010248,0.00082816,0,0,0.061422,-0.025895,0,0.0043064,0,0,0,0.033893,0.00026813,0.010248,1.4118,0.014803,0.029911,8.7631e-07,0.67,0.52,0
0.029985,-0.0019154,0.033882,0.00026659,0.010244,0.00072036,0,0,0.061457,-0.025943,0,0.0037458,0,0,0,0.033897,0.00025099,0.010244,1.2271,0.014798,0.029928,8.7713e-07,0.68,0.52,0
0.0306,-0.0018721,0.033895,0.00023648,0.01024,0.00061741,0,0,0.061505,-0.026008,0,0.0032105,0,0,0,0.033907,0.000225,0.01024,1.0506,0.01479,0.029957,8.786e-07,0.69,0.52,0
0.031215,-0.0018317,0.033912,0.000199,0.010233,0.00052036,0,0,0.061565,-0.026089,0,0.0027059,0,0,0,0.033921,0.00019083,0.010233,0.88414,0.014782,0.029997,8.8064e-07,0.7,0.52,0
0.031831,-0.0017943,0.033932,0.00015498,0.010226,0.00042996,0,0,0.061636,-0.026185,0,0.0022358,0,0,0,0.033938,0.00014939,0.010226,0.72925,0.014771,0.030045,8.8315e-07,0.71,0.52,0
0.032448,-0.0017598,0.033954,0.00010535,0.010218,0.00034668,0,0,0.061714,-0.026292,0,0.0018027,0,0,0,0.033958,0.0001017,0.010218,0.58683,0.014759,0.030101,8.8605e-07,0.72,0.52,0
0.033066,-0.0017282,0.033977,5.113e-05,0.010208,0.00027079,0,0,0.061798,-0.026409,0,0.0014081,0,0,0,0.033979,4.8882e-05,0.010208,0.45737,0.014745,0.030162,8.8923e-07,0.73,0.52,0
0.033684,-0.0016993,0.034001,-6.6901e-06,0.010198,0.00020235,0,0,0.061886,-0.026533,0,0.0010522,0,0,0,0.034002,-7.9651e-06,0.010198,0.34099,0.014731,0.030228,8.9262e-07,0.74,0.52,0
0.034303,-0.0016731,0.034024,-6.7135e-05,0.010187,0.00014128,0,0,0.061977,-0.026661,0,0.00073467,0,0,0,0.034025,-6.7778e-05,0.010187,0.23753,0.014715,0.030296,8.9613e-07,0.75,0.52,0
0.034924,-0.0016493,0.034048,-0.0001293,0.010176,8.7397e-05,0,0,0.062068,-0.026793,0,0.00045447,0,0,0,0.034048,-0.00012956,0.010176,0.14659,0.014698,0.030366,8.997e-07,0.76,0.52,0
0.035545,-0.0016278,0.034071,-0.00019234,0.010164,4.0402e-05,0,0,0.062159,-0.026925,0,0.00021009,0,0,0,0.034071,-0.00019242,0.010164,0.067634,0.014681,0.030437,9.0325e-07,0.77,0.52,0
0.036167,-0.0016084,0.034093,-0.00025551,0.010151,-5.7513e-08,0,0,0.062248,-0.027057,0,-2.9894e-07,0,0,0,0.034093,-0.00025554,0.010151,-2.9447e-05,0.014663,0.030507,9.0675e-07,0.78,0.52,0
0.03679,-0.0015911,0.034114,-0.00031817,0.010139,-3.4377e-05,0,0,0.062335,-0.027188,0,-0.00017876,0,0,0,0.034114,-0.00031822,0.010139,-0.057146,0.014645,0.030575,9.1015e-07,0.79,0.52,0
0.037413,-0.0015756,0.034133,-0.00037972,0.010126,-6.2981e-05,0,0,0.062418,-0.027315,0,-0.0003275,0,0,0,0.034133,-0.00037985,0.010126,-0.10451,0.014626,0.030642,9.1342e-07,0.8,0.52,0
0.038038,-0.0015618,0.034151,-0.0004397,0.010113,-8.6304e-05,0,0,0.062498,-0.027438,0,-0.00044878,0,0,0,0.034151,-0.00043992,0.010113,-0.14291,0.014608,0.030706,9.1652e-07,0.81,0.52,0
0.038663,-0.0015495,0.034167,-0.00049768,0.010101,-0.00010478,0,0,0.062573,-0.027556,0,-0.00054487,0,0,0,0.034168,-0.00049801,0.010101,-0.17315,0.01459,0.030767,9.1945e-07,0.82,0.52,0
0.039289,-0.0015385,0.034182,-0.00055335,0.010089,-0.00011885,0,0,0.062643,-0.027669,0,-0.00061801,0,0,0,0.034183,-0.00055376,0.010089,-0.19601,0.014572,0.030825,9.2219e-07,0.83,0.52,0
0.039916,-0.0015289,0.034195,-0.00060641,0.010077,-0.00012891,0,0,0.062709,-0.027776,0,-0.00067033,0,0,0,0.034196,-0.00060689,0.010077,-0.2122,0.014555,0.03088,9.2473e-07,0.84,0.52,0
0.040544,-0.0015204,0.034207,-0.00065666,0.010065,-0.00013537,0,0,0.06277,-0.027877,0,-0.00070391,0,0,0,0.034208,-0.00065719,0.010065,-0.22244,0.014539,0.030931,9.2707e-07,0.85,0.52,0
0.041172,-0.0015129,0.034218,-0.00070393,0.010054,-0.00013859,0,0,0.062826,-0.027971,0,-0.00072069,0,0,0,0.034218,-0.00070448,0.010054,-0.22737,0.014523,0.030978,9.2921e-07,0.86,0.52,0
0.0418,-0.0015064,0.034227,-0.0007481,0.010044,-0.00013894,0,0,0.062877,-0.028059,0,-0.00072248,0,0,0,0.034228,-0.00074865,0.010044,-0.22759,0.014508,0.031022,9.3116e-07,0.87,0.52,0
0.042429,-0.0015007,0.034235,-0.00078907,0.010034,-0.00013673,0,0,0.062923,-0.028139,0,-0.00071098,0,0,0,0.034236,-0.0007896,0.010034,-0.22366,0.014493,0.031061,9.3292e-07,0.88,0.52,0
0.043059,-0.0014957,0.034242,-0.00082678,0.010025,-0.00013226,0,0,0.062965,-0.028213,0,-0.00068776,0,0,0,0.034242,-0.00082728,0.010025,-0.21608,0.01448,0.031098,9.345e-07,0.89,0.52,0
0.043688,-0.0014914,0.034248,-0.00086119,0.010016,-0.00012582,0,0,0.063003,-0.028281,0,-0.00065426,0,0,0,0.034248,-0.00086165,0.010016,-0.20533,0.014467,0.031131,9.359e-07,0.9,0.52,0
0.044319,-0.0014877,0.034253,-0.00089229,0.010008,-0.00011766,0,0,0.063036,-0.028341,0,-0.00061182,0,0,0,0.034253,-0.00089269,0.010008,-0.19181,0.014456,0.03116,9.3714e-07,0.91,0.52,0
0.044949,-0.0014846,0.034257,-0.00092007,0.010001,-0.00010801,0,0,0.063065,-0.028395,0,-0.00056165,0,0,0,0.034257,-0.00092041,0.010001,-0.17592,0.014446,0.031186,9.3821e-07,0.92,0.52,0
0.04558,-0.0014819,0.03426,-0.00094453,0.0099947,-9.709e-05,0,0,0.06309,-0.028442,0,-0.00050487,0,0,0,0.03426,-0.0009448,0.0099947,-0.15802,0.014437,0.031208,9.3914e-07,0.93,0.52,0
0.046211,-0.0014797,0.034263,-0.00096569,0.0099892,-8.5097e-05,0,0,0.063112,-0.028483,0,-0.00044251,0,0,0,0.034263,-0.00096589,0.0099892,-0.1384,0.014429,0.031228,9.3993e-07,0.94,0.52,0
0.046842,-0.0014779,0.034265,-0.00098355,0.0099845,-7.2214e-05,0,0,0.06313,-0.028517,0,-0.00037551,0,0,0,0.034265,-0.0009837,0.0099845,-0.11738,0.014422,0.031244,9.4058e-07,0.95,0.52,0
0.047474,-0.0014764,0.034267,-0.00099813,0.0099806,-5.8608e-05,0,0,0.063144,-0.028545,0,-0.00030476,0,0,0,0.034267,-0.00099823,0.0099806,-0.095224,0.014416,0.031257,9.4111e-07,0.96,0.52,0
0.048105,-0.0014753,0.034268,-0.0010095,0.0099776,-4.4438e-05,0,0,0.063155,-0.028566,0,-0.00023108,0,0,0,0.034268,-0.0010095,0.0099776,-0.072176,0.014412,0.031267,9.4151e-07,0.97,0.52,0
0.048737,-0.0014746,0.034269,-0.0010175,0.0099754,-2.9853e-05,0,0,0.063163,-0.028582,0,-0.00015523,0,0,0,0.034269,-0.0010176,0.0099754,-0.048474,0.014409,0.031274,9.4179e-07,0.98,0.52,0
0.049368,-0.0014741,0.034269,-0.0010224,0.0099741,-1.4273e-05,0,0,0.063168,-0.028591,0,-7.4221e-05,0,0,0,0.034269,-0.0010224,0.0099741,-0.023173,0.014407,0.031279,9.4196e-07,0.99,0.52,0
0.049684,-0.001474,0.03427,-0.001024,0.0099737,-6.0724e-06,0,0,0.063169,-0.028594,0,-3.1577e-05,0,0,0,0.03427,-0.001024,0.0099737,-0.0098577,0.014406,0.03128,9.4202e-07,1,0.52,0
0.00024116,-1.0597e-05,0.032447,0.013699,0.013844,-0.00039867,0,0,0.048367,-0.00037551,0,-0.0020731,0,0,0,0.032456,0.01369,0.013844,-1.2185,0.019997,0.01869,3.3519e-07,0,0.53,0
0.00048367,-1.9955e-05,0.032477,0.013505,0.013794,-0.00037536,0,0,0.048574,-0.00075342,0,-0.0019519,0,0,0,0.032485,0.013497,0.013794,-1.1353,0.019925,0.018842,3.4327e-07,0.01,0.53,0
0.00097148,-3.6078e-05,0.032586,0.013132,0.013715,-0.00031153,0,0,0.049064,-0.0015177,0,-0.00162,0,0,0,0.032592,0.013126,0.013715,-0.92069,0.019811,0.019179,3.6122e-07,0.02,0.53,0
0.001465,-4.6846e-05,0.03275,0.012769,0.013656,-0.00022607,0,0,0.049645,-0.0023046,0,-0.0011756,0,0,0,0.032753,0.012766,0.013656,-0.65172,0.019725,0.019559,3.8164e-07,0.03,0.53,0
0.0019644,-5.2025e-05,0.032927,0.012396,0.013597,-0.00013387,0,0,0.050258,-0.0031227,0,-0.00069612,0,0,0,0.032929,0.012394,0.013597,-0.37705,0.01964,0.019962,4.0357e-07,0.04,0.53,0
0.0024701,-5.1586e-05,0.033121,0.01201,0.013539,-3.8878e-05,0,0,0.050912,-0.0039756,0,-0.00020217,0,0,0,0.033122,0.012009,0.013539,-0.10882,0.019557,0.020392,4.2731e-07,0.05,0.53,0
0.0029826,-4.5682e-05,0.033335,0.011615,0.013485,5.5331e-05,0,0,0.05161,-0.0048618,0,0.00028772,0,0,0,0.033336,0.011613,0.013485,0.14295,0.019478,0.020851,4.5305e-07,0.06,0.53,0
0.0035023,-3.4638e-05,0.033572,0.011215,0.013436,0.00014531,0,0,0.052353,-0.0057743,0,0.00075563,0,0,0,0.033575,0.011213,0.013436,0.36978,0.019408,0.021338,4.8087e-07,0.07,0.53,0
0.0040297,-1.893e-05,0.033835,0.010821,0.013397,0.00022773,0,0,0.053139,-0.0066969,0,0.0011842,0,0,0,0.033839,0.010817,0.013397,0.56473,0.019351,0.021847,5.1062e-07,0.08,0.53,0
0.0045651,8.5025e-07,0.034124,0.010449,0.013372,0.0002999,0,0,0.053955,-0.0075998,0,0.0015595,0,0,0,0.034129,0.010443,0.013372,0.72385,0.019315,0.022367,5.4179e-07,0.09,0.53,0
0.0051088,2.411e-05,0.034433,0.010125,0.013368,0.00036162,0,0,0.054771,-0.0084301,0,0.0018804,0,0,0,0.034441,0.010118,0.013368,0.85042,0.019309,0.022872,5.7312e-07,0.1,0.53,0
0.0056605,5.054e-05,0.034752,0.0098938,0.013394,0.0004204,0,0,0.055531,-0.0090996,0,0.0021861,0,0,0,0.034761,0.0098845,0.013394,0.96629,0.019346,0.023321,6.0218e-07,0.11,0.53,0
0.0062194,8.0842e-05,0.035051,0.0098191,0.013461,0.00051435,0,0,0.056135,-0.0094693,0,0.0026746,0,0,0,0.035064,0.0098064,0.013461,1.1638,0.019444,0.023643,6.2469e-07,0.12,0.53,0
0.0067832,0.00011961,0.035774,0.0097904,0.013669,0.00048376,0,0,0.054129,-0.0093159,0,0.00262,0,0,0,0.03579,0.0097747,0.013669,1.117,0.019745,0.024306,6.9614e-07,0.13,0.53,0
0.0073094,0.00015466,0.035968,0.0094515,0.013626,0.0006791,0,0,0.046674,-0.0083164,0,0.0030637,0,0,0,0.036017,0.0094023,0.013626,1.652,0.019682,0.024782,7.6147e-07,0.14,0.53,0
0.0077274,0.000151,0.035113,0.0089046,0.013205,0.0012328,0,0,0.036913,-0.0069105,0,0.004405,0,0,0,0.035205,0.0088126,0.013205,2.8996,0.019074,0.024499,7.2254e-07,0.15,0.53,0
0.0080469,0.0001048,0.035057,0.0086061,0.013099,0.0013139,0,0,0.030647,-0.006154,0,0.0039289,0,0,0,0.035132,0.0085311,0.013099,2.9142,0.018921,0.024638,6.9421e-07,0.16,0.53,0
0.0083363,4.4183e-05,0.035443,0.0084583,0.01317,0.0010958,0,0,0.028955,-0.0061258,0,0.0028491,0,0,0,0.035488,0.0084132,0.01317,2.3213,0.019024,0.025038,7.0932e-07,0.17,0.53,0
0.008626,-1.9235e-05,0.035437,0.0082069,0.013093,0.0010459,0,0,0.029047,-0.0063523,0,0.0027193,0,0,0,0.035478,0.0081667,0.013093,2.1973,0.018913,0.025212,7.1829e-07,0.18,0.53,0
0.0089172,-8.5996e-05,0.035475,0.0078889,0.013009,0.0010431,0,0,0.029205,-0.0066562,0,0.0027119,0,0,0,0.035514,0.0078494,0.013009,2.1626,0.018791,0.02548,7.336e-07,0.19,0.53,0
0.0092101,-0.00015488,0.035506,0.0075549,0.012918,0.0010652,0,0,0.029364,-0.0069725,0,0.0027696,0,0,0,0.035547,0.0075143,0.012918,2.1795,0.01866,0.02576,7.4932e-07,0.2,0.53,0
0.0095045,-0.00022545,0.035526,0.0072023,0.012818,0.0010738,0,0,0.02952,-0.007301,0,0.002792,0,0,0,0.035567,0.0071616,0.012818,2.1685,0.018516,0.026042,7.6476e-07,0.21,0.53,0
0.0098005,-0.00029779,0.035538,0.0068221,0.012708,0.001058,0,0,0.029679,-0.0076518,0,0.0027509,0,0,0,0.035577,0.0067831,0.012708,2.1079,0.018356,0.026336,7.8047e-07,0.22,0.53,0
0.010098,-0.00037209,0.035547,0.0064142,0.012588,0.00102,0,0,0.029846,-0.0080264,0,0.002652,0,0,0,0.035583,0.0063784,0.012588,2.0037,0.018183,0.026648,7.9676e-07,0.23,0.53,0
0.010397,-0.00044853,0.035552,0.0059814,0.01246,0.00096491,0,0,0.03002,-0.0084222,0,0.0025088,0,0,0,0.035584,0.0059499,0.01246,1.868,0.017998,0.026975,8.1349e-07,0.24,0.53,0
0.010699,-0.00052724,0.035552,0.0055269,0.012324,0.00089756,0,0,0.030197,-0.0088358,0,0.0023337,0,0,0,0.035579,0.0055,0.012324,1.712,0.017801,0.027314,8.3044e-07,0.25,0.53,0
0.011001,-0.00060824,0.035545,0.0050533,0.012179,0.00082212,0,0,0.030375,-0.0092639,0,0.0021375,0,0,0,0.035567,0.005031,0.012179,1.5446,0.017592,0.027664,8.4736e-07,0.26,0.53,0
0.011306,-0.00069152,0.035529,0.004563,0.012028,0.00074233,0,0,0.030552,-0.0097042,0,0.0019301,0,0,0,0.035547,0.0045451,0.012028,1.3738,0.017373,0.028021,8.6405e-07,0.27,0.53,0
0.011612,-0.00077698,0.035505,0.0040585,0.011869,0.00066173,0,0,0.030727,-0.010154,0,0.0017205,0,0,0,0.035519,0.0040444,0.011869,1.2062,0.017144,0.028384,8.8033e-07,0.28,0.53,0
0.011921,-0.00086444,0.035471,0.0035428,0.011704,0.00058368,0,0,0.030897,-0.01061,0,0.0015176,0,0,0,0.035482,0.003532,0.011704,1.0482,0.016906,0.028749,8.9594e-07,0.29,0.53,0
0.01223,-0.00095369,0.035425,0.0030199,0.011534,0.0005111,0,0,0.031059,-0.011068,0,0.0013289,0,0,0,0.035434,0.0030117,0.011534,0.90445,0.01666,0.029112,9.1057e-07,0.3,0.53,0
0.012542,-0.0010444,0.035367,0.0024947,0.011358,0.0004461,0,0,0.031211,-0.011523,0,0.0011599,0,0,0,0.035373,0.0024885,0.011358,0.77831,0.016407,0.029469,9.2385e-07,0.31,0.53,0
0.012855,-0.0011363,0.035293,0.0019726,0.01118,0.00038954,0,0,0.031347,-0.011969,0,0.0010128,0,0,0,0.035297,0.0019679,0.01118,0.67056,0.016148,0.029811,9.3536e-07,0.32,0.53,0
0.013169,-0.0012289,0.035202,0.001459,0.010998,0.00034082,0,0,0.031464,-0.012401,0,0.00088614,0,0,0,0.035205,0.0014554,0.010998,0.57943,0.015886,0.030134,9.4475e-07,0.33,0.53,0
0.013484,-0.0013219,0.035093,0.00095812,0.010815,0.00029795,0,0,0.031561,-0.012814,0,0.00077467,0,0,0,0.035096,0.00095528,0.010815,0.50087,0.015622,0.030433,9.5178e-07,0.34,0.53,0
0.0138,-0.001415,0.034966,0.00047192,0.010632,0.00025798,0,0,0.031635,-0.013207,0,0.00067075,0,0,0,0.034969,0.00046968,0.010632,0.42938,0.015357,0.030707,9.5643e-07,0.35,0.53,0
0.014117,-0.0015078,0.034826,-2.4851e-07,0.010448,0.00021785,0,0,0.031691,-0.013582,0,0.00056642,0,0,0,0.034827,-1.9711e-06,0.010448,0.35946,0.015091,0.030957,9.5895e-07,0.36,0.53,0
0.014434,-0.0015999,0.034675,-0.00046201,0.010264,0.00017551,0,0,0.031734,-0.013944,0,0.00045631,0,0,0,0.034676,-0.00046328,0.010264,0.28744,0.014826,0.031192,9.5987e-07,0.37,0.53,0
0.014751,-0.0016911,0.034522,-0.00091938,0.010081,0.00013114,0,0,0.031773,-0.0143,0,0.00034097,0,0,0,0.034523,-0.00092025,0.010081,0.21344,0.014561,0.031422,9.5997e-07,0.38,0.53,0
0.015069,-0.0017809,0.034374,-0.0013792,0.0098985,8.8387e-05,0,0,0.031819,-0.014661,0,0.00022981,0,0,0,0.034375,-0.0013798,0.0098985,0.14311,0.014298,0.03166,9.6013e-07,0.39,0.53,0
0.015388,-0.0018687,0.034241,-0.0018466,0.0097185,5.4878e-05,0,0,0.03188,-0.015035,0,0.00014268,0,0,0,0.034242,-0.0018469,0.0097185,0.088433,0.014038,0.031918,9.6117e-07,0.4,0.53,0
0.015707,-0.0019538,0.034129,-0.002321,0.0095425,4.1778e-05,0,0,0.031963,-0.015423,0,0.00010862,0,0,0,0.034129,-0.0023212,0.0095425,0.066573,0.013784,0.032202,9.6359e-07,0.41,0.53,0
0.016027,-0.0020352,0.034038,-0.0027929,0.0093735,6.1276e-05,0,0,0.032064,-0.015816,0,0.00015932,0,0,0,0.034038,-0.0027931,0.0093735,0.095685,0.01354,0.032503,9.6714e-07,0.42,0.53,0
0.016348,-0.0021117,0.033956,-0.003238,0.0092155,0.00012004,0,0,0.032163,-0.01619,0,0.0003121,0,0,0,0.033957,-0.0032385,0.0092155,0.18491,0.013311,0.032793,9.7043e-07,0.43,0.53,0
0.01667,-0.0021824,0.033866,-0.003613,0.0090759,0.00020513,0,0,0.032227,-0.016496,0,0.00053335,0,0,0,0.033868,-0.0036144,0.0090759,0.3139,0.01311,0.03302,9.7117e-07,0.44,0.53,0
0.016993,-0.0022468,0.033763,-0.0038763,0.008966,0.00026802,0,0,0.032236,-0.016695,0,0.00069684,0,0,0,0.033765,-0.0038785,0.008966,0.40936,0.012951,0.033144,9.6856e-07,0.45,0.53,0
0.017315,-0.0023054,0.033716,-0.0040688,0.0088942,0.0002986,0,0,0.032268,-0.016852,0,0.00077636,0,0,0,0.033719,-0.0040716,0.0088942,0.4545,0.012847,0.03326,9.6972e-07,0.46,0.53,0
0.017638,-0.0023557,0.03331,-0.003775,0.0088604,0.00010516,0,0,0.03402,-0.017342,0,-1.0787e-05,0,0,0,0.033318,-0.0037829,0.0088604,0.084167,0.012798,0.032675,9.4908e-07,0.47,0.53,0
0.017991,-0.0024095,0.033442,-0.0022023,0.009372,5.3236e-06,0,0,0.040235,-0.018558,0,-0.00045602,0,0,0,0.033461,-0.0022211,0.009372,-0.16251,0.013537,0.03155,9.6608e-07,0.48,0.53,0
0.018442,-0.0025002,0.034499,0.00014357,0.010393,0.00030215,0,0,0.050055,-0.020434,0,0.00083404,0,0,0,0.034519,0.00012388,0.010393,0.35713,0.015012,0.030606,9.9814e-07,0.49,0.53,0
0.019003,-0.0026184,0.034524,0.001564,0.010826,0.00050863,0,0,0.057948,-0.022362,0,0.0022394,0,0,0,0.034537,0.0015508,0.010826,0.83178,0.015638,0.029472,9.1638e-07,0.5,0.53,0
0.019609,-0.0027128,0.034007,0.0015617,0.010671,0.0007715,0,0,0.060674,-0.023683,0,0.0040118,0,0,0,0.034029,0.0015394,0.010671,1.3556,0.015413,0.029023,8.5001e-07,0.51,0.53,0
0.020217,-0.0027685,0.033933,0.0011201,0.010516,0.0011648,0,0,0.060885,-0.024429,0,0.0060569,0,0,0,0.033976,0.0010773,0.010516,2.0294,0.01519,0.029341,8.5966e-07,0.52,0.53,0
0.020826,-0.002797,0.033853,0.00081909,0.010402,0.0014103,0,0,0.060974,-0.024915,0,0.0073334,0,0,0,0.033914,0.0007583,0.010402,2.4403,0.015025,0.029539,8.642e-07,0.53,0.53,0
0.021436,-0.0028041,0.033787,0.00061379,0.01032,0.0015716,0,0,0.061014,-0.025237,0,0.0081725,0,0,0,0.033862,0.00053917,0.01032,2.707,0.014907,0.029667,8.6648e-07,0.54,0.53,0
0.022047,-0.002794,0.033738,0.00047758,0.010265,0.0016698,0,0,0.06103,-0.025446,0,0.0086831,0,0,0,0.033821,0.00039382,0.010265,2.8676,0.014827,0.029747,8.675e-07,0.55,0.53,0
0.022657,-0.0027703,0.033703,0.00039323,0.010229,0.001718,0,0,0.061032,-0.025572,0,0.0089337,0,0,0,0.033791,0.00030479,0.010229,2.9454,0.014775,0.029791,8.6764e-07,0.56,0.53,0
0.023267,-0.002736,0.033679,0.00034785,0.010208,0.0017259,0,0,0.061024,-0.025636,0,0.0089746,0,0,0,0.033768,0.00025868,0.010208,2.9568,0.014745,0.029807,8.6711e-07,0.57,0.53,0
0.023878,-0.0026936,0.033663,0.000331,0.010198,0.0017011,0,0,0.061009,-0.025655,0,0.0088459,0,0,0,0.03375,0.00024436,0.010198,2.9144,0.014731,0.029802,8.6608e-07,0.58,0.53,0
0.024488,-0.0026453,0.033654,0.00033387,0.010196,0.00165,0,0,0.06099,-0.025642,0,0.00858,0,0,0,0.033735,0.00025229,0.010196,2.8283,0.014728,0.029783,8.6472e-07,0.59,0.53,0
0.025097,-0.002593,0.03365,0.00034897,0.0102,0.0015778,0,0,0.060971,-0.025612,0,0.0082044,0,0,0,0.033725,0.00027428,0.0102,2.7067,0.014733,0.029756,8.6324e-07,0.6,0.53,0
0.025707,-0.0025383,0.033651,0.00036996,0.010206,0.001489,0,0,0.060956,-0.025574,0,0.0077427,0,0,0,0.033718,0.00030333,0.010206,2.5566,0.014742,0.029727,8.6184e-07,0.61,0.53,0
0.026316,-0.0024824,0.033656,0.00039156,0.010214,0.0013877,0,0,0.060949,-0.025539,0,0.0072158,0,0,0,0.033714,0.0003336,0.010214,2.3846,0.014754,0.0297,8.6073e-07,0.62,0.53,0
0.026926,-0.0024266,0.033667,0.00040962,0.010223,0.0012775,0,0,0.060954,-0.025514,0,0.006643,0,0,0,0.033716,0.00036043,0.010223,2.1965,0.014766,0.02968,8.6006e-07,0.63,0.53,0
0.027536,-0.0023717,0.033681,0.00042109,0.010231,0.0011618,0,0,0.060972,-0.025505,0,0.0060415,0,0,0,0.033722,0.00038035,0.010231,1.9981,0.014778,0.029669,8.5996e-07,0.64,0.53,0
0.028145,-0.0023185,0.0337,0.00042395,0.010237,0.0010437,0,0,0.061004,-0.025515,0,0.0054271,0,0,0,0.033733,0.00039103,0.010237,1.7946,0.014787,0.029671,8.6051e-07,0.65,0.53,0
0.028756,-0.0022675,0.033724,0.0004171,0.010242,0.00092566,0,0,0.061052,-0.025545,0,0.0048134,0,0,0,0.03375,0.00039118,0.010242,1.5907,0.014794,0.029685,8.6174e-07,0.66,0.53,0
0.029366,-0.002219,0.033751,0.00040017,0.010245,0.00081,0,0,0.061114,-0.025597,0,0.004212,0,0,0,0.03377,0.0003803,0.010245,1.3905,0.014799,0.029712,8.6364e-07,0.67,0.53,0
0.029978,-0.0021735,0.03378,0.00037341,0.010246,0.00069851,0,0,0.061189,-0.025669,0,0.0036323,0,0,0,0.033795,0.00035862,0.010246,1.1973,0.0148,0.029752,8.6617e-07,0.68,0.53,0
0.03059,-0.0021309,0.033813,0.00033747,0.010245,0.00059262,0,0,0.061276,-0.02576,0,0.0030816,0,0,0,0.033823,0.0003268,0.010245,1.0139,0.014798,0.029802,8.6925e-07,0.69,0.53,0
0.031203,-0.0020915,0.033847,0.00029328,0.010242,0.00049338,0,0,0.061373,-0.025867,0,0.0025656,0,0,0,0.033854,0.00028587,0.010242,0.8423,0.014794,0.029862,8.7279e-07,0.7,0.53,0
0.031818,-0.0020552,0.033882,0.00024197,0.010237,0.00040149,0,0,0.061477,-0.025988,0,0.0020877,0,0,0,0.033887,0.00023705,0.010237,0.68376,0.014787,0.02993,8.7671e-07,0.71,0.53,0
0.032433,-0.0020219,0.033918,0.00018474,0.010231,0.00031739,0,0,0.061586,-0.02612,0,0.0016504,0,0,0,0.033921,0.00018164,0.010231,0.53911,0.014778,0.030004,8.8091e-07,0.72,0.53,0
0.033049,-0.0019916,0.033953,0.00012279,0.010223,0.00024127,0,0,0.061699,-0.02626,0,0.0012546,0,0,0,0.033955,0.00012097,0.010223,0.4087,0.014766,0.030083,8.8529e-07,0.73,0.53,0
0.033667,-0.001964,0.033988,5.73e-05,0.010214,0.00017314,0,0,0.061813,-0.026406,0,0.0009003,0,0,0,0.033989,5.6338e-05,0.010214,0.29245,0.014753,0.030165,8.8977e-07,0.74,0.53,0
0.034286,-0.0019391,0.034021,-1.0623e-05,0.010203,0.00011281,0,0,0.061927,-0.026556,0,0.00058663,0,0,0,0.034022,-1.1061e-05,0.010203,0.19003,0.014738,0.030248,8.9427e-07,0.75,0.53,0
0.034905,-0.0019168,0.034053,-7.997e-05,0.010192,6.003e-05,0,0,0.06204,-0.026707,0,0.00031216,0,0,0,0.034054,-8.0125e-05,0.010192,0.10085,0.014722,0.030331,8.9873e-07,0.76,0.53,0
0.035526,-0.0018967,0.034084,-0.00014983,0.01018,1.4416e-05,0,0,0.062149,-0.026858,0,7.4962e-05,0,0,0,0.034084,-0.00014988,0.01018,0.02421,0.014705,0.030414,9.0308e-07,0.77,0.53,0
0.036148,-0.0018787,0.034112,-0.00021941,0.010168,-2.4454e-05,0,0,0.062255,-0.027007,0,-0.00012716,0,0,0,0.034112,-0.00021946,0.010168,-0.040738,0.014687,0.030495,9.0729e-07,0.78,0.53,0
0.036772,-0.0018628,0.034139,-0.00028802,0.010155,-5.7043e-05,0,0,0.062357,-0.027152,0,-0.00029663,0,0,0,0.034139,-0.00028814,0.010155,-0.094872,0.014669,0.030573,9.1131e-07,0.79,0.53,0
0.037396,-0.0018486,0.034163,-0.00035508,0.010142,-8.3833e-05,0,0,0.062453,-0.027293,0,-0.00043593,0,0,0,0.034163,-0.0003553,0.010142,-0.1391,0.01465,0.030649,9.1512e-07,0.8,0.53,0
0.038021,-0.0018361,0.034185,-0.00042009,0.010129,-0.00010531,0,0,0.062544,-0.027429,0,-0.00054761,0,0,0,0.034185,-0.00042042,0.010129,-0.17431,0.014631,0.030721,9.1871e-07,0.81,0.53,0
0.038646,-0.001825,0.034205,-0.00048266,0.010117,-0.00012195,0,0,0.062629,-0.027558,0,-0.00063414,0,0,0,0.034205,-0.0004831,0.010117,-0.20139,0.014613,0.030789,9.2205e-07,0.82,0.53,0
0.039273,-0.0018153,0.034222,-0.00054247,0.010104,-0.00013422,0,0,0.062708,-0.027681,0,-0.00069794,0,0,0,0.034223,-0.000543,0.010104,-0.22117,0.014595,0.030852,9.2514e-07,0.83,0.53,0
0.039901,-0.0018068,0.034238,-0.00059927,0.010092,-0.00014256,0,0,0.062781,-0.027796,0,-0.0007413,0,0,0,0.034239,-0.00059986,0.010092,-0.23443,0.014577,0.030912,9.2799e-07,0.84,0.53,0
0.040529,-0.0017993,0.034252,-0.00065286,0.01008,-0.00014738,0,0,0.062848,-0.027905,0,-0.00076638,0,0,0,0.034253,-0.00065349,0.01008,-0.2419,0.01456,0.030968,9.3059e-07,0.85,0.53,0
0.041158,-0.0017928,0.034264,-0.00070311,0.010068,-0.00014908,0,0,0.062909,-0.028006,0,-0.0007752,0,0,0,0.034265,-0.00070374,0.010068,-0.24425,0.014543,0.031019,9.3295e-07,0.86,0.53,0
0.041787,-0.0017872,0.034275,-0.0007499,0.010057,-0.00014801,0,0,0.062965,-0.028099,0,-0.00076965,0,0,0,0.034275,-0.00075053,0.010057,-0.24211,0.014527,0.031065,9.3509e-07,0.87,0.53,0
0.042417,-0.0017823,0.034284,-0.00079319,0.010047,-0.00014451,0,0,0.063015,-0.028185,0,-0.00075144,0,0,0,0.034284,-0.00079379,0.010047,-0.23603,0.014513,0.031108,9.37e-07,0.88,0.53,0
0.043047,-0.0017781,0.034291,-0.00083294,0.010038,-0.00013887,0,0,0.06306,-0.028263,0,-0.00072214,0,0,0,0.034292,-0.00083349,0.010038,-0.22653,0.014499,0.031147,9.387e-07,0.89,0.53,0
0.043678,-0.0017745,0.034298,-0.00086912,0.010029,-0.00013139,0,0,0.0631,-0.028334,0,-0.00068321,0,0,0,0.034298,-0.00086962,0.010029,-0.21406,0.014486,0.031182,9.402e-07,0.9,0.53,0
0.044309,-0.0017714,0.034303,-0.00090175,0.01002,-0.0001223,0,0,0.063135,-0.028398,0,-0.00063593,0,0,0,0.034304,-0.00090218,0.01002,-0.19903,0.014474,0.031212,9.4152e-07,0.91,0.53,0
0.044941,-0.0017688,0.034308,-0.00093084,0.010013,-0.00011183,0,0,0.063166,-0.028454,0,-0.00058151,0,0,0,0.034308,-0.0009312,0.010013,-0.18183,0.014463,0.03124,9.4266e-07,0.92,0.53,0
0.045573,-0.0017666,0.034311,-0.00095641,0.010006,-0.00010019,0,0,0.063193,-0.028504,0,-0.00052101,0,0,0,0.034312,-0.0009567,0.010006,-0.16278,0.014454,0.031263,9.4365e-07,0.93,0.53,0
0.046205,-0.0017648,0.034314,-0.00097849,0.010001,-8.7578e-05,0,0,0.063215,-0.028546,0,-0.00045541,0,0,0,0.034315,-0.00097871,0.010001,-0.14218,0.014446,0.031284,9.4447e-07,0.94,0.53,0
0.046837,-0.0017634,0.034317,-0.00099711,0.0099958,-7.4153e-05,0,0,0.063234,-0.028582,0,-0.00038559,0,0,0,0.034317,-0.00099727,0.0099958,-0.12031,0.014438,0.0313,9.4516e-07,0.95,0.53,0
0.047469,-0.0017622,0.034318,-0.0010123,0.0099918,-6.0074e-05,0,0,0.063249,-0.028611,0,-0.00031239,0,0,0,0.034318,-0.0010124,0.0099918,-0.097425,0.014433,0.031314,9.4571e-07,0.96,0.53,0
0.048102,-0.0017613,0.03432,-0.0010241,0.0099887,-4.5488e-05,0,0,0.063261,-0.028633,0,-0.00023654,0,0,0,0.03432,-0.0010241,0.0099887,-0.073742,0.014428,0.031325,9.4613e-07,0.97,0.53,0
0.048735,-0.0017607,0.034321,-0.0010325,0.0099864,-3.0529e-05,0,0,0.063269,-0.028649,0,-0.00015875,0,0,0,0.034321,-0.0010325,0.0099864,-0.049478,0.014425,0.031332,9.4642e-07,0.98,0.53,0
0.049367,-0.0017604,0.034321,-0.0010375,0.0099851,-1.4755e-05,0,0,0.063274,-0.028659,0,-7.6723e-05,0,0,0,0.034321,-0.0010375,0.0099851,-0.023909,0.014423,0.031337,9.466e-07,0.99,0.53,0
0.049684,-0.0017602,0.034321,-0.0010392,0.0099846,-6.5368e-06,0,0,0.063275,-0.028662,0,-3.3991e-05,0,0,0,0.034321,-0.0010392,0.0099846,-0.010591,0.014422,0.031338,9.4666e-07,1,0.53,0
0.00024035,-1.4461e-05,0.032337,0.013643,0.013794,-0.00054881,0,0,0.048213,-0.0003935,0,-0.0028538,0,0,0,0.032354,0.013626,0.013794,-1.681,0.019925,0.018645,3.3279e-07,0,0.54,0
0.00048213,-2.7692e-05,0.032369,0.01344,0.013743,-0.000528,0,0,0.048428,-0.00078674,0,-0.0027456,0,0,0,0.032384,0.013425,0.013743,-1.599,0.01985,0.018803,3.4113e-07,0.01,0.54,0
0.00096856,-5.1619e-05,0.032483,0.013055,0.013661,-0.00047128,0,0,0.048936,-0.001577,0,-0.0024507,0,0,0,0.032495,0.013042,0.013661,-1.3924,0.019733,0.019151,3.5955e-07,0.02,0.54,0
0.0014608,-7.0369e-05,0.032653,0.012686,0.013602,-0.00039707,0,0,0.049534,-0.0023813,0,-0.0020648,0,0,0,0.032662,0.012677,0.013602,-1.1424,0.019647,0.01954,3.8033e-07,0.03,0.54,0
0.0019592,-8.3809e-05,0.032837,0.012309,0.013544,-0.00031983,0,0,0.050161,-0.0032098,0,-0.0016631,0,0,0,0.032843,0.012303,0.013544,-0.89593,0.019563,0.019949,4.0249e-07,0.04,0.54,0
0.0024641,-9.1949e-05,0.033037,0.011924,0.013488,-0.00024305,0,0,0.050826,-0.0040667,0,-0.0012638,0,0,0,0.033041,0.01192,0.013488,-0.66283,0.019483,0.020383,4.2632e-07,0.05,0.54,0
0.0029757,-9.493e-05,0.033256,0.011532,0.013436,-0.00016993,0,0,0.05153,-0.0049506,0,-0.00088361,0,0,0,0.033259,0.01153,0.013436,-0.4513,0.019408,0.020842,4.5197e-07,0.06,0.54,0
0.0034947,-9.3e-05,0.033496,0.011139,0.013391,-0.00010333,0,0,0.052275,-0.005854,0,-0.00053733,0,0,0,0.033498,0.011137,0.013391,-0.26775,0.019342,0.021325,4.7946e-07,0.07,0.54,0
0.0040212,-8.6472e-05,0.033758,0.010753,0.013353,-4.5213e-05,0,0,0.053052,-0.0067605,0,-0.00023511,0,0,0,0.03376,0.010751,0.013353,-0.11537,0.019288,0.021825,5.0855e-07,0.08,0.54,0
0.0045557,-7.5629e-05,0.034038,0.010389,0.013328,4.8641e-06,0,0,0.053845,-0.0076417,0,2.5294e-05,0,0,0,0.034039,0.010387,0.013328,0.0090732,0.019251,0.022328,5.3859e-07,0.09,0.54,0
0.0050981,-6.0541e-05,0.034325,0.010067,0.013318,5.3144e-05,0,0,0.054619,-0.0084517,0,0.00027635,0,0,0,0.034327,0.010065,0.013318,0.12267,0.019236,0.022811,5.6818e-07,0.1,0.54,0
0.0056481,-4.0672e-05,0.034594,0.0098138,0.013322,0.00011944,0,0,0.055306,-0.0091219,0,0.0006211,0,0,0,0.034596,0.0098115,0.013322,0.27314,0.019243,0.023229,5.9461e-07,0.11,0.54,0
0.0062043,-1.405e-05,0.034801,0.009658,0.013338,0.00025747,0,0,0.055805,-0.0095673,0,0.0013389,0,0,0,0.034806,0.0096535,0.013338,0.58486,0.019266,0.023527,6.1415e-07,0.12,0.54,0
0.0067642,2.4744e-05,0.035225,0.0095415,0.01343,0.0003852,0,0,0.05544,-0.0098433,0,0.0020542,0,0,0,0.035234,0.009533,0.01343,0.88025,0.019399,0.023992,6.5873e-07,0.13,0.54,0
0.0073168,6.7477e-05,0.035365,0.0091472,0.013354,0.00063699,0,0,0.05111,-0.0094397,0,0.003105,0,0,0,0.035401,0.0091113,0.013354,1.4946,0.019289,0.024455,7.0351e-07,0.14,0.54,0
0.0077918,7.9006e-05,0.034935,0.0086628,0.013079,0.0010628,0,0,0.041091,-0.0078359,0,0.0042044,0,0,0,0.035006,0.0085914,0.013079,2.455,0.018892,0.024495,6.9231e-07,0.15,0.54,0
0.0081382,4.3347e-05,0.035072,0.008572,0.013093,0.0011699,0,0,0.031864,-0.0063583,0,0.0036264,0,0,0,0.035134,0.0085092,0.013093,2.5823,0.018912,0.024661,6.8791e-07,0.16,0.54,0
0.008427,-1.6637e-05,0.035551,0.0084876,0.013211,0.0010274,0,0,0.029041,-0.006141,0,0.0026712,0,0,0,0.03559,0.0084477,0.013211,2.1733,0.019083,0.025103,7.1568e-07,0.17,0.54,0
0.008719,-8.3211e-05,0.035713,0.0081599,0.013162,0.00099729,0,0,0.029316,-0.0065025,0,0.0025929,0,0,0,0.035749,0.0081236,0.013162,2.0714,0.019012,0.025483,7.3954e-07,0.18,0.54,0
0.0090133,-0.00015325,0.03577,0.0078363,0.013082,0.0010375,0,0,0.029495,-0.0068194,0,0.0026974,0,0,0,0.035809,0.0077977,0.013082,2.1235,0.018896,0.025779,7.5687e-07,0.19,0.54,0
0.0093089,-0.00022517,0.035764,0.0075378,0.012991,0.0010743,0,0,0.029605,-0.0070885,0,0.0027933,0,0,0,0.035805,0.0074969,0.012991,2.1762,0.018764,0.026,7.6868e-07,0.2,0.54,0
0.0096054,-0.00029881,0.035733,0.0072143,0.012884,0.0010813,0,0,0.029703,-0.0073709,0,0.0028114,0,0,0,0.035774,0.0071733,0.012884,2.1683,0.01861,0.026216,7.7942e-07,0.21,0.54,0
0.009903,-0.00037446,0.035706,0.0068549,0.012768,0.0010617,0,0,0.029819,-0.0076873,0,0.0027604,0,0,0,0.035745,0.0068158,0.012768,2.1051,0.018443,0.02646,7.9154e-07,0.22,0.54,0
0.010202,-0.00045236,0.035686,0.0064631,0.012645,0.0010233,0,0,0.029954,-0.0080361,0,0.0026607,0,0,0,0.035722,0.0064273,0.012645,2.0039,0.018265,0.026734,8.0519e-07,0.23,0.54,0
0.010502,-0.00053266,0.035668,0.0060425,0.012513,0.00097159,0,0,0.030101,-0.0084118,0,0.0025261,0,0,0,0.0357,0.0060105,0.012513,1.8773,0.018074,0.027031,8.1987e-07,0.24,0.54,0
0.010804,-0.00061541,0.035647,0.0055966,0.012373,0.00091013,0,0,0.030256,-0.0088096,0,0.0023663,0,0,0,0.035675,0.0055689,0.012373,1.7342,0.017872,0.027347,8.3511e-07,0.25,0.54,0
0.011107,-0.00070064,0.035622,0.0051285,0.012225,0.00084203,0,0,0.030415,-0.0092255,0,0.0021893,0,0,0,0.035645,0.0051051,0.012225,1.5817,0.017658,0.027676,8.5054e-07,0.26,0.54,0
0.011412,-0.00078827,0.035589,0.0046404,0.012069,0.0007704,0,0,0.030576,-0.0096568,0,0.002003,0,0,0,0.035608,0.0046211,0.012069,1.4262,0.017433,0.028016,8.6592e-07,0.27,0.54,0
0.011719,-0.0008782,0.035547,0.0041344,0.011905,0.00069874,0,0,0.030736,-0.010101,0,0.0018167,0,0,0,0.035563,0.0041187,0.011905,1.2747,0.017195,0.028365,8.8103e-07,0.28,0.54,0
0.012027,-0.00097021,0.035496,0.0036135,0.011733,0.0006309,0,0,0.030892,-0.010555,0,0.0016404,0,0,0,0.035509,0.0036009,0.011733,1.1342,0.016948,0.028719,8.9561e-07,0.29,0.54,0
0.012337,-0.001064,0.035434,0.0030822,0.011555,0.00057059,0,0,0.031043,-0.011014,0,0.0014835,0,0,0,0.035444,0.003072,0.011555,1.011,0.01669,0.029074,9.0926e-07,0.3,0.54,0
0.012648,-0.0011593,0.035356,0.0025465,0.011371,0.00052057,0,0,0.031181,-0.011472,0,0.0013535,0,0,0,0.035365,0.0025381,0.011371,0.90946,0.016425,0.029423,9.2149e-07,0.31,0.54,0
0.01296,-0.0012556,0.035262,0.0020137,0.011183,0.00048199,0,0,0.031303,-0.01192,0,0.0012532,0,0,0,0.035269,0.0020065,0.011183,0.83091,0.016153,0.029755,9.3173e-07,0.32,0.54,0
0.013274,-0.0013526,0.035146,0.0014912,0.010991,0.00045379,0,0,0.031401,-0.01235,0,0.0011799,0,0,0,0.035152,0.0014848,0.010991,0.77283,0.015876,0.030064,9.3944e-07,0.33,0.54,0
0.013588,-0.0014497,0.035007,0.00098503,0.010798,0.00043271,0,0,0.031472,-0.012756,0,0.0011251,0,0,0,0.035013,0.00097918,0.010798,0.72907,0.015597,0.030341,9.4423e-07,0.34,0.54,0
0.013903,-0.0015466,0.034845,0.00049836,0.010603,0.00041374,0,0,0.031514,-0.013136,0,0.0010757,0,0,0,0.03485,0.00049291,0.010603,0.69073,0.015315,0.030583,9.4597e-07,0.35,0.54,0
0.014218,-0.0016431,0.034661,3.0474e-05,0.010407,0.00039111,0,0,0.03153,-0.01349,0,0.0010169,0,0,0,0.034666,2.5471e-05,0.010407,0.64796,0.015033,0.030792,9.4488e-07,0.36,0.54,0
0.014534,-0.0017387,0.034461,-0.00042372,0.010211,0.00035977,0,0,0.031525,-0.013825,0,0.00093541,0,0,0,0.034466,-0.00042811,0.010211,0.59222,0.01475,0.030976,9.4158e-07,0.37,0.54,0
0.014849,-0.0018334,0.034254,-0.00087332,0.010014,0.00031715,0,0,0.031512,-0.014154,0,0.00082458,0,0,0,0.034257,-0.0008769,0.010014,0.51908,0.014465,0.031151,9.3705e-07,0.38,0.54,0
0.015164,-0.0019267,0.03405,-0.0013298,0.0098161,0.00026495,0,0,0.031504,-0.01449,0,0.00068886,0,0,0,0.034053,-0.0013325,0.0098161,0.43122,0.014179,0.031336,9.3251e-07,0.39,0.54,0
0.015479,-0.0020182,0.033862,-0.0018038,0.0096174,0.00021076,0,0,0.031518,-0.014848,0,0.00054796,0,0,0,0.033864,-0.0018056,0.0096174,0.34082,0.013892,0.031549,9.2921e-07,0.4,0.54,0
0.015794,-0.0021072,0.033701,-0.0022996,0.0094203,0.00016837,0,0,0.031564,-0.015236,0,0.00043776,0,0,0,0.033702,-0.0023007,0.0094203,0.26992,0.013607,0.031806,9.2808e-07,0.41,0.54,0
0.01611,-0.0021926,0.033573,-0.0028088,0.0092292,0.00015672,0,0,0.031647,-0.015649,0,0.00040748,0,0,0,0.033574,-0.0028096,0.0092292,0.24802,0.013331,0.032104,9.2939e-07,0.42,0.54,0
0.016427,-0.0022731,0.033469,-0.0033076,0.0090483,0.00019651,0,0,0.031746,-0.016063,0,0.00051092,0,0,0,0.03347,-0.0033088,0.0090483,0.30645,0.01307,0.032418,9.3178e-07,0.43,0.54,0
0.016745,-0.0023469,0.033345,-0.003741,0.0088812,0.00029748,0,0,0.031803,-0.016409,0,0.00077344,0,0,0,0.033348,-0.0037438,0.0088812,0.45971,0.012828,0.032664,9.3081e-07,0.44,0.54,0
0.017063,-0.0024128,0.033146,-0.0040062,0.0087418,0.00042096,0,0,0.031725,-0.016572,0,0.0010945,0,0,0,0.033151,-0.0040119,0.0087418,0.65062,0.012627,0.032708,9.2031e-07,0.45,0.54,0
0.01738,-0.0024718,0.032901,-0.0040627,0.0086514,0.00044386,0,0,0.031524,-0.016528,0,0.001154,0,0,0,0.032907,-0.0040695,0.0086514,0.69,0.012496,0.032538,9.0233e-07,0.46,0.54,0
0.017694,-0.0025281,0.032451,-0.0036676,0.0086351,0.00018134,0,0,0.034373,-0.017231,0,0.00013941,0,0,0,0.032461,-0.0036779,0.0086351,0.22038,0.012473,0.03184,8.6071e-07,0.47,0.54,0
0.018065,-0.0026012,0.032412,-0.0021467,0.0090797,-5.199e-05,0,0,0.043478,-0.019663,0,-0.00077515,0,0,0,0.032429,-0.0021636,0.0090797,-0.2213,0.013115,0.030604,8.3977e-07,0.48,0.54,0
0.018563,-0.0027149,0.033051,-7.2244e-06,0.0099133,9.452e-05,0,0,0.053489,-0.022213,0,0.00010128,0,0,0,0.033065,-2.0562e-05,0.0099133,0.070084,0.014319,0.029428,8.5122e-07,0.49,0.54,0
0.019141,-0.002847,0.033185,0.0011118,0.010289,0.00039344,0,0,0.058202,-0.023282,0,0.0018886,0,0,0,0.033195,0.0011019,0.010289,0.67745,0.014862,0.028628,8.1664e-07,0.5,0.54,0
0.019731,-0.0029499,0.033002,0.0010827,0.010225,0.00079525,0,0,0.059219,-0.023771,0,0.0041353,0,0,0,0.033026,0.0010588,0.010225,1.42,0.01477,0.028512,7.8942e-07,0.51,0.54,0
0.020325,-0.0030123,0.033053,0.00081844,0.010162,0.0011992,0,0,0.059519,-0.024292,0,0.0062357,0,0,0,0.033099,0.00077255,0.010162,2.1252,0.014678,0.028804,8.0277e-07,0.52,0.54,0
0.020921,-0.0030452,0.033081,0.00062628,0.010112,0.0014402,0,0,0.059719,-0.024663,0,0.0074889,0,0,0,0.033145,0.000562,0.010112,2.5351,0.014606,0.029012,8.1196e-07,0.53,0.54,0
0.021519,-0.0030551,0.033098,0.00049373,0.010078,0.0015883,0,0,0.059853,-0.024918,0,0.008259,0,0,0,0.033175,0.00041636,0.010078,2.782,0.014556,0.029155,8.1813e-07,0.54,0.54,0
0.022118,-0.0030468,0.033121,0.00041173,0.01006,0.0016739,0,0,0.059958,-0.025085,0,0.0087044,0,0,0,0.033206,0.00032623,0.01006,2.9219,0.014531,0.029254,8.228e-07,0.55,0.54,0
0.022719,-0.0030242,0.033151,0.00037016,0.010056,0.0017128,0,0,0.060046,-0.025184,0,0.0089065,0,0,0,0.03324,0.0002809,0.010056,2.9827,0.014526,0.02932,8.265e-07,0.56,0.54,0
0.023319,-0.0029905,0.033187,0.00035943,0.010064,0.0017144,0,0,0.06012,-0.025232,0,0.0089147,0,0,0,0.033276,0.00027013,0.010064,2.9812,0.014537,0.029361,8.2943e-07,0.57,0.54,0
0.023921,-0.0029482,0.033226,0.00037086,0.010079,0.0016855,0,0,0.060183,-0.025242,0,0.0087644,0,0,0,0.033313,0.00028459,0.010079,2.9288,0.014559,0.029382,8.3171e-07,0.58,0.54,0
0.024523,-0.0028997,0.033267,0.00039682,0.010099,0.0016315,0,0,0.060237,-0.025226,0,0.0084836,0,0,0,0.033348,0.00031597,0.010099,2.8342,0.014588,0.029388,8.3348e-07,0.59,0.54,0
0.025126,-0.0028471,0.033309,0.00043058,0.010122,0.0015569,0,0,0.060287,-0.025198,0,0.0080957,0,0,0,0.033383,0.00035691,0.010122,2.7047,0.014621,0.029387,8.3493e-07,0.6,0.54,0
0.025729,-0.002792,0.033352,0.00046623,0.010145,0.0014657,0,0,0.060337,-0.025166,0,0.0076216,0,0,0,0.033417,0.00040088,0.010145,2.5466,0.014655,0.029382,8.3625e-07,0.61,0.54,0
0.026332,-0.0027358,0.033395,0.00049874,0.010168,0.0013617,0,0,0.06039,-0.025141,0,0.0070809,0,0,0,0.033452,0.00044227,0.010168,2.366,0.014687,0.02938,8.3767e-07,0.62,0.54,0
0.026937,-0.0026798,0.03344,0.00052412,0.010189,0.0012486,0,0,0.060451,-0.025129,0,0.0064927,0,0,0,0.033487,0.0004766,0.010189,2.169,0.014718,0.029384,8.3936e-07,0.63,0.54,0
0.027541,-0.0026249,0.033486,0.0005396,0.010208,0.0011299,0,0,0.060523,-0.025137,0,0.0058752,0,0,0,0.033524,0.00050065,0.010208,1.9616,0.014744,0.029398,8.4149e-07,0.64,0.54,0
0.028147,-0.0025719,0.033533,0.00054348,0.010223,0.0010087,0,0,0.060606,-0.025167,0,0.0052452,0,0,0,0.033564,0.00051242,0.010223,1.7495,0.014766,0.029424,8.4414e-07,0.65,0.54,0
0.028754,-0.0025213,0.033582,0.0005351,0.010235,0.00088795,0,0,0.060702,-0.02522,0,0.0046173,0,0,0,0.033606,0.00051101,0.010235,1.5379,0.014784,0.029462,8.4737e-07,0.66,0.54,0
0.029361,-0.0024735,0.033632,0.00051455,0.010244,0.00077002,0,0,0.060809,-0.025297,0,0.0040041,0,0,0,0.03365,0.00049642,0.010244,1.3312,0.014797,0.029513,8.5115e-07,0.67,0.54,0
0.02997,-0.0024288,0.033684,0.00048251,0.01025,0.00065684,0,0,0.060928,-0.025395,0,0.0034156,0,0,0,0.033697,0.0004693,0.01025,1.1329,0.014805,0.029576,8.5545e-07,0.68,0.54,0
0.03058,-0.0023873,0.033735,0.00044005,0.010253,0.00054988,0,0,0.061055,-0.025512,0,0.0028594,0,0,0,0.033744,0.00043076,0.010253,0.94595,0.014809,0.029649,8.602e-07,0.69,0.54,0
0.031191,-0.0023491,0.033787,0.00038848,0.010252,0.00045021,0,0,0.061188,-0.025646,0,0.0023411,0,0,0,0.033793,0.00038223,0.010252,0.77222,0.014809,0.029731,8.6529e-07,0.7,0.54,0
0.031803,-0.0023141,0.033837,0.00032925,0.01025,0.0003585,0,0,0.061327,-0.025794,0,0.0018642,0,0,0,0.033841,0.00032526,0.01025,0.61299,0.014805,0.029819,8.7065e-07,0.71,0.54,0
0.032417,-0.0022822,0.033886,0.00026382,0.010245,0.00027515,0,0,0.061468,-0.025951,0,0.0014308,0,0,0,0.033889,0.00026144,0.010245,0.46893,0.014798,0.029912,8.7616e-07,0.72,0.54,0
0.033033,-0.0022534,0.033934,0.00019364,0.010238,0.00020027,0,0,0.061609,-0.026116,0,0.0010414,0,0,0,0.033935,0.00019235,0.010238,0.34018,0.014789,0.030009,8.8175e-07,0.73,0.54,0
0.03365,-0.0022275,0.03398,0.00012006,0.01023,0.00013379,0,0,0.061749,-0.026286,0,0.0006957,0,0,0,0.03398,0.00011945,0.01023,0.2265,0.014777,0.030107,8.8732e-07,0.74,0.54,0
0.034268,-0.0022042,0.034023,4.4321e-05,0.01022,7.5459e-05,0,0,0.061887,-0.026457,0,0.00039239,0,0,0,0.034023,4.4084e-05,0.01022,0.12735,0.014762,0.030205,8.928e-07,0.75,0.54,0
0.034887,-0.0021834,0.034063,-3.2472e-05,0.010209,2.492e-05,0,0,0.06202,-0.026628,0,0.00012958,0,0,0,0.034063,-3.2544e-05,0.010209,0.041978,0.014747,0.030302,8.9813e-07,0.76,0.54,0
0.035508,-0.0021649,0.0341,-0.00010934,0.010197,-1.8272e-05,0,0,0.062148,-0.026797,0,-9.5013e-05,0,0,0,0.0341,-0.00010939,0.010197,-0.030511,0.014729,0.030396,9.0326e-07,0.77,0.54,0
0.03613,-0.0021486,0.034135,-0.00018544,0.010185,-5.4612e-05,0,0,0.06227,-0.026963,0,-0.00028398,0,0,0,0.034135,-0.00018556,0.010185,-0.091092,0.014711,0.030488,9.0815e-07,0.78,0.54,0
0.036754,-0.0021341,0.034166,-0.00026007,0.010172,-8.4627e-05,0,0,0.062386,-0.027123,0,-0.00044006,0,0,0,0.034167,-0.0002603,0.010172,-0.14077,0.014693,0.030576,9.1276e-07,0.79,0.54,0
0.037378,-0.0021214,0.034195,-0.00033263,0.010159,-0.00010885,0,0,0.062494,-0.027277,0,-0.00056603,0,0,0,0.034195,-0.00033299,0.010159,-0.18057,0.014674,0.03066,9.1709e-07,0.8,0.54,0
0.038003,-0.0021103,0.03422,-0.00040265,0.010145,-0.00012781,0,0,0.062595,-0.027425,0,-0.00066463,0,0,0,0.034221,-0.00040313,0.010145,-0.21146,0.014654,0.030739,9.2111e-07,0.81,0.54,0
0.03863,-0.0021006,0.034243,-0.00046974,0.010132,-0.00014203,0,0,0.062689,-0.027565,0,-0.00073856,0,0,0,0.034244,-0.00047033,0.010132,-0.23439,0.014635,0.030813,9.2483e-07,0.82,0.54,0
0.039257,-0.0020922,0.034264,-0.0005336,0.010119,-0.00015199,0,0,0.062776,-0.027697,0,-0.00079036,0,0,0,0.034264,-0.00053427,0.010119,-0.25023,0.014616,0.030882,9.2825e-07,0.83,0.54,0
0.039885,-0.0020848,0.034281,-0.00059401,0.010106,-0.00015816,0,0,0.062856,-0.027821,0,-0.00082244,0,0,0,0.034282,-0.00059473,0.010106,-0.25981,0.014598,0.030947,9.3136e-07,0.84,0.54,0
0.040514,-0.0020785,0.034297,-0.00065081,0.010094,-0.00016097,0,0,0.062928,-0.027936,0,-0.00083705,0,0,0,0.034298,-0.00065156,0.010094,-0.26388,0.01458,0.031006,9.3419e-07,0.85,0.54,0
0.041144,-0.002073,0.03431,-0.00070389,0.010082,-0.00016082,0,0,0.062994,-0.028043,0,-0.00083624,0,0,0,0.034311,-0.00070463,0.010082,-0.26313,0.014563,0.03106,9.3673e-07,0.86,0.54,0
0.041774,-0.0020684,0.034322,-0.00075318,0.010071,-0.00015806,0,0,0.063053,-0.028142,0,-0.00082191,0,0,0,0.034322,-0.0007539,0.010071,-0.25818,0.014546,0.03111,9.3902e-07,0.87,0.54,0
0.042405,-0.0020644,0.034332,-0.00079865,0.01006,-0.00015304,0,0,0.063106,-0.028232,0,-0.0007958,0,0,0,0.034332,-0.00079932,0.01006,-0.24959,0.014531,0.031155,9.4105e-07,0.88,0.54,0
0.043036,-0.002061,0.03434,-0.00084028,0.01005,-0.00014605,0,0,0.063154,-0.028314,0,-0.00075945,0,0,0,0.03434,-0.00084089,0.01005,-0.23786,0.014516,0.031196,9.4285e-07,0.89,0.54,0
0.043668,-0.0020581,0.034347,-0.0008781,0.010041,-0.00013736,0,0,0.063196,-0.028388,0,-0.00071428,0,0,0,0.034347,-0.00087864,0.010041,-0.22343,0.014503,0.031232,9.4443e-07,0.9,0.54,0
0.0443,-0.0020557,0.034352,-0.00091213,0.010032,-0.00012722,0,0,0.063232,-0.028455,0,-0.00066154,0,0,0,0.034353,-0.00091259,0.010032,-0.2067,0.014491,0.031264,9.4581e-07,0.91,0.54,0
0.044933,-0.0020536,0.034357,-0.00094241,0.010024,-0.00011584,0,0,0.063264,-0.028513,0,-0.00060237,0,0,0,0.034357,-0.00094279,0.010024,-0.18803,0.01448,0.031293,9.47e-07,0.92,0.54,0
0.045566,-0.002052,0.034361,-0.00096898,0.010017,-0.00010342,0,0,0.063292,-0.028565,0,-0.00053777,0,0,0,0.034361,-0.00096928,0.010017,-0.16772,0.01447,0.031317,9.4801e-07,0.93,0.54,0
0.046199,-0.0020506,0.034363,-0.00099189,0.010011,-9.0127e-05,0,0,0.063315,-0.028609,0,-0.00046866,0,0,0,0.034364,-0.00099212,0.010011,-0.14606,0.014461,0.031338,9.4887e-07,0.94,0.54,0
0.046832,-0.0020495,0.034366,-0.0010112,0.010006,-7.6124e-05,0,0,0.063334,-0.028646,0,-0.00039584,0,0,0,0.034366,-0.0010114,0.010006,-0.12329,0.014454,0.031355,9.4957e-07,0.95,0.54,0
0.047465,-0.0020486,0.034368,-0.0010269,0.010002,-6.1551e-05,0,0,0.06335,-0.028676,0,-0.00032006,0,0,0,0.034368,-0.001027,0.010002,-0.09964,0.014448,0.03137,9.5013e-07,0.96,0.54,0
0.048099,-0.002048,0.034369,-0.0010391,0.0099989,-4.6536e-05,0,0,0.063362,-0.028699,0,-0.00024199,0,0,0,0.034369,-0.0010392,0.0099989,-0.075306,0.014443,0.03138,9.5056e-07,0.97,0.54,0
0.048733,-0.0020475,0.03437,-0.0010478,0.0099966,-3.1199e-05,0,0,0.06337,-0.028715,0,-0.00016224,0,0,0,0.03437,-0.0010478,0.0099966,-0.050474,0.014439,0.031388,9.5086e-07,0.98,0.54,0
0.049366,-0.0020473,0.03437,-0.001053,0.0099952,-1.5237e-05,0,0,0.063375,-0.028725,0,-7.9232e-05,0,0,0,0.03437,-0.001053,0.0099952,-0.024646,0.014437,0.031393,9.5104e-07,0.99,0.54,0
0.049683,-0.0020472,0.03437,-0.0010547,0.0099947,-7.0093e-06,0,0,0.063377,-0.028728,0,-3.6448e-05,0,0,0,0.03437,-0.0010547,0.0099947,-0.011336,0.014437,0.031394,9.511e-07,1,0.54,0
0.00023946,-1.8467e-05,0.032217,0.013586,0.013741,-0.00070434,0,0,0.048038,-0.00040352,0,-0.0036626,0,0,0,0.032244,0.013558,0.013741,-2.163,0.019848,0.018596,3.3015e-07,0,0.55,0
0.00048038,-3.569e-05,0.032249,0.013378,0.013688,-0.00068583,0,0,0.048257,-0.00080513,0,-0.0035663,0,0,0,0.032274,0.013353,0.013688,-2.0814,0.019772,0.018757,3.3857e-07,0.01,0.55,0
0.00096515,-6.7617e-05,0.032364,0.012986,0.013605,-0.00063571,0,0,0.048773,-0.0016087,0,-0.0033057,0,0,0,0.032386,0.012965,0.013605,-1.8807,0.019652,0.01911,3.5712e-07,0.02,0.55,0
0.0014558,-9.4471e-05,0.032537,0.012615,0.013545,-0.00057211,0,0,0.049377,-0.0024198,0,-0.002975,0,0,0,0.032554,0.012597,0.013545,-1.6472,0.019566,0.019501,3.779e-07,0.03,0.55,0
0.0019527,-0.00011622,0.032721,0.012238,0.013488,-0.00050908,0,0,0.050006,-0.0032483,0,-0.0026472,0,0,0,0.032734,0.012225,0.013488,-1.4264,0.019482,0.019909,3.9987e-07,0.04,0.55,0
0.002456,-0.00013292,0.032919,0.011856,0.013433,-0.00044929,0,0,0.050665,-0.0040984,0,-0.0023363,0,0,0,0.03293,0.011846,0.013433,-1.2248,0.019403,0.020338,4.2329e-07,0.05,0.55,0
0.002966,-0.00014469,0.033134,0.01147,0.013381,-0.00039521,0,0,0.051357,-0.0049685,0,-0.0020551,0,0,0,0.033143,0.011462,0.013381,-1.0481,0.019329,0.020788,4.4826e-07,0.06,0.55,0
0.0034831,-0.00015172,0.033366,0.011085,0.013335,-0.0003487,0,0,0.052081,-0.0058514,0,-0.0018132,0,0,0,0.033373,0.011078,0.013335,-0.89957,0.019262,0.021257,4.7475e-07,0.07,0.55,0
0.0040076,-0.00015414,0.033615,0.010707,0.013297,-0.00030998,0,0,0.052828,-0.0067328,0,-0.0016119,0,0,0,0.033621,0.010702,0.013297,-0.77831,0.019207,0.021739,5.0252e-07,0.08,0.55,0
0.0045397,-0.00015198,0.033879,0.010349,0.013268,-0.00027571,0,0,0.053587,-0.0075907,0,-0.0014337,0,0,0,0.033884,0.010344,0.013268,-0.67456,0.019165,0.022223,5.3106e-07,0.09,0.55,0
0.0050793,-0.00014492,0.034152,0.010024,0.013253,-0.00023501,0,0,0.054339,-0.0083959,0,-0.001222,0,0,0,0.034156,0.01002,0.013253,-0.56154,0.019143,0.022694,5.5958e-07,0.1,0.55,0
0.0056264,-0.0001319,0.034436,0.0097474,0.013255,-0.00016219,0,0,0.055071,-0.0091197,0,-0.00084339,0,0,0,0.034439,0.0097445,0.013255,-0.38002,0.019146,0.02314,5.8747e-07,0.11,0.55,0
0.0061808,-0.0001105,0.034765,0.0095317,0.013289,-1.4174e-05,0,0,0.055837,-0.0097689,0,-7.3705e-05,0,0,0,0.034768,0.0095286,0.013289,-0.034584,0.019195,0.023585,6.1682e-07,0.12,0.55,0
0.0067432,-7.7218e-05,0.035185,0.0092992,0.013345,0.00020892,0,0,0.056782,-0.010519,0,0.0010864,0,0,0,0.035191,0.0092928,0.013345,0.4602,0.019276,0.024129,6.5443e-07,0.13,0.55,0
0.0073164,-3.4064e-05,0.035796,0.0087904,0.013376,0.00035445,0,0,0.054291,-0.010743,0,0.001918,0,0,0,0.035815,0.0087715,0.013376,0.80117,0.019321,0.02507,7.3303e-07,0.14,0.55,0
0.0078327,-5.7075e-06,0.036054,0.008325,0.013314,0.0005746,0,0,0.044604,-0.0092669,0,0.0024285,0,0,0,0.036094,0.0082847,0.013314,1.3057,0.019231,0.025683,7.9339e-07,0.15,0.55,0
0.0082134,-2.2386e-05,0.035867,0.0084106,0.013283,0.00094999,0,0,0.034241,-0.007214,0,0.0029403,0,0,0,0.035917,0.0083599,0.013283,2.0586,0.019187,0.025464,7.707e-07,0.16,0.55,0
0.0085163,-7.8637e-05,0.03607,0.0084655,0.013361,0.0010802,0,0,0.030177,-0.0065033,0,0.0029079,0,0,0,0.036115,0.0084207,0.013361,2.2427,0.019299,0.025585,7.6148e-07,0.17,0.55,0
0.0088145,-0.00014929,0.036284,0.0081413,0.013328,0.0010641,0,0,0.029844,-0.0067423,0,0.0027667,0,0,0,0.036326,0.0080999,0.013328,2.1577,0.019251,0.026009,7.8258e-07,0.18,0.55,0
0.0091132,-0.00022238,0.036157,0.0078204,0.013193,0.0011167,0,0,0.029853,-0.0069846,0,0.0029034,0,0,0,0.036201,0.0077761,0.013193,2.2513,0.019057,0.026141,7.8652e-07,0.19,0.55,0
0.0094115,-0.00029665,0.036031,0.0075483,0.013074,0.001137,0,0,0.029845,-0.0071833,0,0.0029561,0,0,0,0.036077,0.0075029,0.013074,2.2816,0.018885,0.026236,7.884e-07,0.2,0.55,0
0.0097101,-0.00037287,0.035944,0.0072364,0.012954,0.0011219,0,0,0.029887,-0.0074329,0,0.002917,0,0,0,0.035988,0.0071926,0.012954,2.2347,0.018711,0.02639,7.944e-07,0.21,0.55,0
0.010009,-0.00045153,0.035891,0.0068902,0.012834,0.0010897,0,0,0.029974,-0.0077274,0,0.0028331,0,0,0,0.035932,0.0068493,0.012834,2.1491,0.018539,0.0266,8.0412e-07,0.22,0.55,0
0.01031,-0.00053281,0.035852,0.0065097,0.012709,0.0010475,0,0,0.030087,-0.0080585,0,0.0027234,0,0,0,0.03589,0.0064723,0.012709,2.0424,0.018357,0.026848,8.1601e-07,0.23,0.55,0
0.010611,-0.00061677,0.035816,0.0060979,0.012574,0.00099751,0,0,0.030214,-0.0084192,0,0.0025935,0,0,0,0.03585,0.0060643,0.012574,1.921,0.018163,0.027123,8.2912e-07,0.24,0.55,0
0.010914,-0.00070343,0.035777,0.0056588,0.012431,0.00094136,0,0,0.03035,-0.0088037,0,0.0024475,0,0,0,0.035807,0.0056293,0.012431,1.7893,0.017956,0.027417,8.4286e-07,0.25,0.55,0
0.011218,-0.00079275,0.035733,0.0051957,0.012279,0.00088026,0,0,0.030491,-0.0092079,0,0.0022887,0,0,0,0.035759,0.0051702,0.012279,1.6506,0.017736,0.027727,8.5684e-07,0.26,0.55,0
0.011524,-0.00088465,0.035682,0.0047096,0.012117,0.00081628,0,0,0.030634,-0.0096302,0,0.0021223,0,0,0,0.035704,0.004688,0.012117,1.5096,0.017503,0.028049,8.7087e-07,0.27,0.55,0
0.011831,-0.000979,0.035623,0.0042015,0.011947,0.00075292,0,0,0.030778,-0.010069,0,0.0019576,0,0,0,0.035641,0.0041833,0.011947,1.3728,0.017257,0.028384,8.8477e-07,0.28,0.55,0
0.012139,-0.0010756,0.035554,0.0036736,0.011768,0.00069488,0,0,0.030922,-0.010523,0,0.0018067,0,0,0,0.035569,0.0036583,0.011768,1.2488,0.016999,0.028728,8.9833e-07,0.29,0.55,0
0.012449,-0.001174,0.035474,0.0031308,0.011581,0.00064709,0,0,0.03106,-0.010986,0,0.0016824,0,0,0,0.035487,0.0031177,0.011581,1.1463,0.016729,0.029077,9.111e-07,0.3,0.55,0
0.01276,-0.0012738,0.035379,0.0025808,0.011388,0.00061354,0,0,0.031188,-0.011449,0,0.0015952,0,0,0,0.03539,0.0025691,0.011388,1.0716,0.016449,0.029421,9.2246e-07,0.31,0.55,0
0.013073,-0.0013747,0.035263,0.0020331,0.011189,0.00059602,0,0,0.031296,-0.011902,0,0.0015496,0,0,0,0.035274,0.0020222,0.011189,1.0273,0.016162,0.029748,9.3162e-07,0.32,0.55,0
0.013386,-0.0014759,0.035123,0.0014984,0.010986,0.00059323,0,0,0.031377,-0.012334,0,0.0015424,0,0,0,0.035133,0.0014876,0.010986,1.0104,0.015869,0.030045,9.3781e-07,0.33,0.55,0
0.0137,-0.001577,0.034953,0.00098546,0.010781,0.00060051,0,0,0.031423,-0.012735,0,0.0015613,0,0,0,0.034964,0.00097434,0.010781,1.0125,0.015573,0.030301,9.4037e-07,0.34,0.55,0
0.014015,-0.0016777,0.034752,0.00049953,0.010575,0.00061036,0,0,0.031429,-0.013099,0,0.0015869,0,0,0,0.034763,0.00048795,0.010575,1.0208,0.015275,0.030509,9.3901e-07,0.35,0.55,0
0.014329,-0.0017776,0.03452,4.0414e-05,0.010368,0.0006137,0,0,0.031397,-0.013426,0,0.0015956,0,0,0,0.034532,2.857e-05,0.010368,1.0201,0.014976,0.03067,9.3385e-07,0.36,0.55,0
0.014643,-0.0018764,0.034262,-0.00039823,0.010159,0.00060168,0,0,0.031334,-0.013725,0,0.0015644,0,0,0,0.034274,-0.0004098,0.010159,0.99552,0.014674,0.030791,9.2551e-07,0.37,0.55,0
0.014956,-0.0019742,0.033988,-0.00082873,0.0099478,0.00056775,0,0,0.031252,-0.014009,0,0.0014762,0,0,0,0.033999,-0.00083925,0.0099478,0.93611,0.014369,0.030891,9.1515e-07,0.38,0.55,0
0.015268,-0.0020707,0.03371,-0.0012682,0.0097325,0.00051029,0,0,0.031171,-0.014301,0,0.0013268,0,0,0,0.033719,-0.0012769,0.0097325,0.83859,0.014058,0.030994,9.0429e-07,0.39,0.55,0
0.015579,-0.0021656,0.033444,-0.0017352,0.0095126,0.00043529,0,0,0.03111,-0.014622,0,0.0011318,0,0,0,0.03345,-0.0017417,0.0095126,0.7124,0.01374,0.03113,8.9463e-07,0.4,0.55,0
0.01589,-0.0022585,0.033205,-0.0022425,0.0092888,0.0003582,0,0,0.031091,-0.014991,0,0.00093131,0,0,0,0.03321,-0.002247,0.0092888,0.58261,0.013417,0.031325,8.8763e-07,0.41,0.55,0
0.016201,-0.0023481,0.03301,-0.0027852,0.0090675,0.00030225,0,0,0.031126,-0.015409,0,0.00078584,0,0,0,0.033013,-0.0027883,0.0090675,0.48685,0.013098,0.031589,8.8432e-07,0.42,0.55,0
0.016512,-0.002433,0.032879,-0.0033319,0.0088641,0.00029704,0,0,0.031219,-0.015855,0,0.0007723,0,0,0,0.032882,-0.0033346,0.0088641,0.47156,0.012804,0.031916,8.8545e-07,0.43,0.55,0
0.016825,-0.0025106,0.032801,-0.0038371,0.0086893,0.00037559,0,0,0.031346,-0.016284,0,0.00097652,0,0,0,0.032806,-0.0038412,0.0086893,0.58698,0.012551,0.032262,8.8931e-07,0.44,0.55,0
0.017139,-0.0025782,0.032736,-0.0041193,0.0085851,0.00052531,0,0,0.031397,-0.016516,0,0.0013658,0,0,0,0.032745,-0.0041276,0.0085851,0.81587,0.012401,0.032441,8.8977e-07,0.45,0.55,0
0.017453,-0.0026359,0.03246,-0.0039376,0.0085569,0.00050072,0,0,0.031724,-0.016545,0,0.0012538,0,0,0,0.03247,-0.0039474,0.0085569,0.76299,0.01236,0.032051,8.7339e-07,0.46,0.55,0
0.017772,-0.0026998,0.032325,-0.0033909,0.0086802,0.00028462,0,0,0.035637,-0.017618,0,0.00050361,0,0,0,0.032336,-0.0034023,0.0086802,0.37355,0.012538,0.031505,8.6394e-07,0.47,0.55,0
0.018165,-0.0028026,0.032604,-0.0021362,0.0091404,0.00012052,0,0,0.045701,-0.020686,0,-0.00010563,0,0,0,0.032618,-0.0021501,0.0091404,0.088275,0.013203,0.030761,8.5278e-07,0.48,0.55,0
0.018691,-0.0029456,0.032591,-0.0003089,0.0096846,7.4306e-05,0,0,0.055358,-0.023448,0,7.4412e-05,0,0,0,0.032599,-0.00031738,0.0096846,0.084959,0.013989,0.029251,7.9712e-07,0.49,0.55,0
0.019276,-0.0030848,0.032323,0.00066329,0.0098959,0.00033109,0,0,0.05831,-0.024005,0,0.0017217,0,0,0,0.032331,0.00065503,0.0098959,0.60559,0.014294,0.028215,7.5057e-07,0.5,0.55,0
0.019857,-0.0031882,0.032193,0.00068103,0.0098623,0.00079674,0,0,0.058061,-0.023871,0,0.0041431,0,0,0,0.032217,0.00065751,0.0098623,1.4468,0.014246,0.028111,7.4262e-07,0.51,0.55,0
0.020437,-0.0032543,0.032169,0.00055935,0.0098186,0.0011589,0,0,0.058112,-0.024074,0,0.0060261,0,0,0,0.032213,0.00051563,0.0098186,2.0944,0.014182,0.02822,7.4627e-07,0.52,0.55,0
0.021019,-0.0032903,0.032239,0.00045678,0.0098087,0.0013861,0,0,0.058318,-0.024315,0,0.0072077,0,0,0,0.0323,0.00039593,0.0098087,2.4902,0.014168,0.028393,7.5553e-07,0.53,0.55,0
0.021603,-0.0033024,0.032337,0.00038744,0.0098173,0.0015232,0,0,0.058551,-0.024518,0,0.0079206,0,0,0,0.032409,0.00031473,0.0098173,2.7213,0.014181,0.028555,7.6533e-07,0.54,0.55,0
0.02219,-0.0032957,0.032445,0.00035323,0.0098396,0.0016018,0,0,0.058775,-0.024664,0,0.0083294,0,0,0,0.032525,0.00027332,0.0098396,2.8486,0.014213,0.028691,7.7455e-07,0.55,0.55,0
0.022779,-0.003274,0.032557,0.00035035,0.0098722,0.0016377,0,0,0.05898,-0.024757,0,0.0085158,0,0,0,0.03264,0.00026716,0.0098722,2.902,0.01426,0.028798,7.8286e-07,0.56,0.55,0
0.02337,-0.0032407,0.032667,0.00037168,0.0099116,0.0016393,0,0,0.059164,-0.024804,0,0.0085244,0,0,0,0.03275,0.00028856,0.0099116,2.8972,0.014317,0.028879,7.9015e-07,0.57,0.55,0
0.023962,-0.0031985,0.032772,0.00040989,0.0099547,0.0016125,0,0,0.059326,-0.024817,0,0.0083851,0,0,0,0.032853,0.00032961,0.0099547,2.8444,0.014379,0.028937,7.9646e-07,0.58,0.55,0
0.024556,-0.0031499,0.032872,0.00045843,0.0099992,0.0015616,0,0,0.05947,-0.024806,0,0.0081204,0,0,0,0.032948,0.00038321,0.0099992,2.751,0.014443,0.028979,8.0189e-07,0.59,0.55,0
0.025151,-0.003097,0.032966,0.00051119,0.010043,0.0014902,0,0,0.0596,-0.024783,0,0.0077489,0,0,0,0.033035,0.00044272,0.010043,2.6226,0.014507,0.029009,8.0663e-07,0.6,0.55,0
0.025748,-0.0030416,0.033055,0.0005623,0.010085,0.0014015,0,0,0.059721,-0.024759,0,0.0072877,0,0,0,0.033115,0.00050174,0.010085,2.4645,0.014567,0.029033,8.1092e-07,0.61,0.55,0
0.026346,-0.0029852,0.033139,0.00060654,0.010124,0.001299,0,0,0.059839,-0.024744,0,0.006755,0,0,0,0.033191,0.0005545,0.010124,2.2824,0.014623,0.029058,8.1501e-07,0.62,0.55,0
0.026945,-0.0029292,0.033219,0.00063986,0.010158,0.0011866,0,0,0.05996,-0.024746,0,0.0061702,0,0,0,0.033263,0.00059642,0.010158,2.0826,0.014672,0.029089,8.1917e-07,0.63,0.55,0
0.027545,-0.0028744,0.033298,0.00065962,0.010187,0.0010679,0,0,0.060087,-0.024772,0,0.005553,0,0,0,0.033333,0.00062441,0.010187,1.8716,0.014715,0.029129,8.2359e-07,0.64,0.55,0
0.028147,-0.0028218,0.033374,0.00066451,0.010212,0.00094651,0,0,0.060223,-0.024822,0,0.0049218,0,0,0,0.033402,0.00063684,0.010212,1.6558,0.01475,0.029181,8.284e-07,0.65,0.55,0
0.02875,-0.0027719,0.03345,0.00065434,0.010231,0.0008256,0,0,0.060368,-0.0249,0,0.0042931,0,0,0,0.033471,0.00063327,0.010231,1.441,0.014778,0.029245,8.3366e-07,0.66,0.55,0
0.029354,-0.002725,0.033524,0.00062974,0.010246,0.00070777,0,0,0.060522,-0.025002,0,0.0036804,0,0,0,0.033539,0.00061423,0.010246,1.2319,0.0148,0.029321,8.3936e-07,0.67,0.55,0
0.02996,-0.0026814,0.033596,0.00059188,0.010256,0.00059509,0,0,0.060683,-0.025128,0,0.0030945,0,0,0,0.033607,0.0005809,0.010256,1.0326,0.014815,0.029408,8.4545e-07,0.68,0.55,0
0.030568,-0.0026412,0.033667,0.00054233,0.010263,0.00048912,0,0,0.060851,-0.025273,0,0.0025434,0,0,0,0.033674,0.00053488,0.010263,0.84582,0.014824,0.029504,8.5187e-07,0.69,0.55,0
0.031177,-0.0026044,0.033735,0.00048282,0.010265,0.00039093,0,0,0.061022,-0.025435,0,0.0020329,0,0,0,0.03374,0.00047802,0.010265,0.67355,0.014828,0.029608,8.5852e-07,0.7,0.55,0
0.031788,-0.0025711,0.033801,0.00041514,0.010265,0.0003012,0,0,0.061194,-0.025609,0,0.0015663,0,0,0,0.033804,0.00041225,0.010265,0.51696,0.014827,0.029717,8.653e-07,0.71,0.55,0
0.032401,-0.0025409,0.033864,0.00034106,0.010261,0.00022026,0,0,0.061366,-0.025793,0,0.0011454,0,0,0,0.033865,0.00033947,0.010261,0.37657,0.014822,0.029829,8.7212e-07,0.72,0.55,0
0.033015,-0.0025139,0.033923,0.00026227,0.010256,0.00014817,0,0,0.061535,-0.025983,0,0.00077049,0,0,0,0.033924,0.0002615,0.010256,0.25233,0.014814,0.029943,8.7888e-07,0.73,0.55,0
0.033632,-0.0024897,0.033979,0.00018029,0.010248,8.4763e-05,0,0,0.0617,-0.026175,0,0.00044077,0,0,0,0.033979,0.00017998,0.010248,0.14382,0.014802,0.030057,8.8551e-07,0.74,0.55,0
0.034249,-0.0024683,0.03403,9.6496e-05,0.010238,2.972e-05,0,0,0.06186,-0.026368,0,0.00015454,0,0,0,0.034031,9.6394e-05,0.010238,0.050302,0.014788,0.03017,8.9193e-07,0.75,0.55,0
0.034869,-0.0024493,0.034078,1.2106e-05,0.010227,-1.7399e-05,0,0,0.062013,-0.026559,0,-9.0474e-05,0,0,0,0.034078,1.2039e-05,0.010227,-0.029152,0.014772,0.03028,8.9809e-07,0.76,0.55,0
0.03549,-0.0024326,0.034122,-7.1845e-05,0.010215,-5.7109e-05,0,0,0.062158,-0.026746,0,-0.00029697,0,0,0,0.034122,-7.1985e-05,0.010215,-0.095593,0.014755,0.030386,9.0394e-07,0.77,0.55,0
0.036112,-0.002418,0.034162,-0.00015449,0.010202,-8.9973e-05,0,0,0.062295,-0.026928,0,-0.00046786,0,0,0,0.034162,-0.00015475,0.010202,-0.15013,0.014737,0.030488,9.0946e-07,0.78,0.55,0
0.036736,-0.0024052,0.034198,-0.00023509,0.010189,-0.00011657,0,0,0.062424,-0.027102,0,-0.00060617,0,0,0,0.034198,-0.00023551,0.010189,-0.1939,0.014717,0.030585,9.1462e-07,0.79,0.55,0
0.03736,-0.0023942,0.03423,-0.00031308,0.010175,-0.00013749,0,0,0.062543,-0.027269,0,-0.00071493,0,0,0,0.034231,-0.00031364,0.010175,-0.22798,0.014697,0.030676,9.1941e-07,0.8,0.55,0
0.037986,-0.0023846,0.034259,-0.00038798,0.010161,-0.00015329,0,0,0.062654,-0.027428,0,-0.00079708,0,0,0,0.03426,-0.00038867,0.010161,-0.25343,0.014677,0.030761,9.2382e-07,0.81,0.55,0
0.038614,-0.0023763,0.034284,-0.00045944,0.010147,-0.00016451,0,0,0.062756,-0.027578,0,-0.00085547,0,0,0,0.034285,-0.00046022,0.010147,-0.27125,0.014657,0.030841,9.2787e-07,0.82,0.55,0
0.039242,-0.0023692,0.034306,-0.00052718,0.010134,-0.00017168,0,0,0.062849,-0.027719,0,-0.00089274,0,0,0,0.034307,-0.00052804,0.010134,-0.28235,0.014638,0.030915,9.3155e-07,0.83,0.55,0
0.039871,-0.0023632,0.034326,-0.00059103,0.01012,-0.00017527,0,0,0.062934,-0.02785,0,-0.00091139,0,0,0,0.034327,-0.00059192,0.01012,-0.28757,0.014618,0.030984,9.3489e-07,0.84,0.55,0
0.0405,-0.002358,0.034342,-0.00065085,0.010107,-0.00017571,0,0,0.063011,-0.027972,0,-0.00091368,0,0,0,0.034343,-0.00065174,0.010107,-0.28767,0.0146,0.031047,9.3789e-07,0.85,0.55,0
0.041131,-0.0023537,0.034356,-0.00070657,0.010095,-0.0001734,0,0,0.06308,-0.028084,0,-0.00090171,0,0,0,0.034357,-0.00070743,0.010095,-0.28334,0.014582,0.031104,9.4058e-07,0.86,0.55,0
0.041762,-0.00235,0.034369,-0.00075816,0.010083,-0.00016872,0,0,0.063142,-0.028187,0,-0.00087735,0,0,0,0.034369,-0.00075897,0.010083,-0.27519,0.014564,0.031156,9.4298e-07,0.87,0.55,0
0.042394,-0.0023469,0.034379,-0.00080561,0.010072,-0.00016198,0,0,0.063197,-0.028282,0,-0.0008423,0,0,0,0.034379,-0.00080636,0.010072,-0.26377,0.014548,0.031203,9.4509e-07,0.88,0.55,0
0.043026,-0.0023444,0.034387,-0.00084896,0.010061,-0.00015348,0,0,0.063246,-0.028367,0,-0.00079808,0,0,0,0.034388,-0.00084963,0.010061,-0.24956,0.014533,0.031245,9.4696e-07,0.89,0.55,0
0.043659,-0.0023422,0.034394,-0.00088824,0.010052,-0.00014347,0,0,0.06329,-0.028444,0,-0.00074604,0,0,0,0.034394,-0.00088882,0.010052,-0.23298,0.014519,0.031282,9.4858e-07,0.9,0.55,0
0.044292,-0.0023405,0.034399,-0.00092351,0.010043,-0.00013218,0,0,0.063327,-0.028512,0,-0.00068736,0,0,0,0.0344,-0.000924,0.010043,-0.21441,0.014506,0.031316,9.4999e-07,0.91,0.55,0
0.044925,-0.0023391,0.034404,-0.00095483,0.010035,-0.00011983,0,0,0.06336,-0.028573,0,-0.00062309,0,0,0,0.034404,-0.00095524,0.010035,-0.19417,0.014495,0.031345,9.5121e-07,0.92,0.55,0
0.045559,-0.0023379,0.034408,-0.00098228,0.010028,-0.00010657,0,0,0.063388,-0.028626,0,-0.00055418,0,0,0,0.034408,-0.0009826,0.010028,-0.17254,0.014484,0.03137,9.5223e-07,0.93,0.55,0
0.046193,-0.002337,0.03441,-0.0010059,0.010021,-9.2584e-05,0,0,0.063411,-0.028671,0,-0.00048144,0,0,0,0.034411,-0.0010061,0.010021,-0.14978,0.014475,0.031391,9.531e-07,0.94,0.55,0
0.046827,-0.0023363,0.034412,-0.0010258,0.010016,-7.7996e-05,0,0,0.063431,-0.028709,0,-0.00040558,0,0,0,0.034413,-0.001026,0.010016,-0.12611,0.014468,0.031409,9.538e-07,0.95,0.55,0
0.047461,-0.0023357,0.034414,-0.001042,0.010012,-6.2933e-05,0,0,0.063446,-0.028739,0,-0.00032725,0,0,0,0.034414,-0.0010421,0.010012,-0.1017,0.014461,0.031423,9.5436e-07,0.96,0.55,0
0.048096,-0.0023353,0.034415,-0.0010545,0.010008,-4.7506e-05,0,0,0.063458,-0.028763,0,-0.00024703,0,0,0,0.034415,-0.0010546,0.010008,-0.076741,0.014456,0.031434,9.5479e-07,0.97,0.55,0
0.048731,-0.002335,0.034416,-0.0010634,0.010006,-3.1813e-05,0,0,0.063466,-0.02878,0,-0.00016543,0,0,0,0.034416,-0.0010634,0.010006,-0.051378,0.014453,0.031442,9.5509e-07,0.98,0.55,0
0.049365,-0.0023349,0.034416,-0.0010688,0.010004,-1.5694e-05,0,0,0.063471,-0.02879,0,-8.1608e-05,0,0,0,0.034416,-0.0010688,0.010004,-0.025341,0.014451,0.031446,9.5527e-07,0.99,0.55,0
0.049683,-0.0023348,0.034417,-0.0010705,0.010004,-7.4745e-06,0,0,0.063473,-0.028793,0,-3.8867e-05,0,0,0,0.034417,-0.0010705,0.010004,-0.012068,0.01445,0.031448,9.5533e-07,1,0.55,0
0.00023848,-2.2532e-05,0.032084,0.013527,0.013683,-0.00086202,0,0,0.047842,-0.00040575,0,-0.0044825,0,0,0,0.032125,0.013487,0.013683,-2.6551,0.019765,0.018541,3.2721e-07,0,0.56,0
0.00047842,-4.3795e-05,0.032116,0.013319,0.01363,-0.00084547,0,0,0.048061,-0.0008089,0,-0.0043965,0,0,0,0.032154,0.013281,0.01363,-2.5731,0.019688,0.018702,3.3557e-07,0.01,0.56,0
0.00096122,-8.3794e-05,0.03223,0.012926,0.013547,-0.00080098,0,0,0.048576,-0.0016138,0,-0.0041651,0,0,0,0.032264,0.012892,0.013547,-2.3758,0.019568,0.019054,3.5392e-07,0.02,0.56,0
0.0014499,-0.00011877,0.0324,0.012555,0.013487,-0.0007465,0,0,0.049176,-0.0024217,0,-0.0038818,0,0,0,0.032429,0.012526,0.013487,-2.1549,0.019481,0.019441,3.7436e-07,0.03,0.56,0
0.0019447,-0.00014878,0.03258,0.012182,0.013429,-0.00069567,0,0,0.049794,-0.0032414,0,-0.0036175,0,0,0,0.032605,0.012157,0.013429,-1.9546,0.019397,0.019843,3.958e-07,0.04,0.56,0
0.0024458,-0.00017392,0.032771,0.011805,0.013373,-0.00065018,0,0,0.050435,-0.0040764,0,-0.003381,0,0,0,0.032792,0.011784,0.013373,-1.778,0.019316,0.020261,4.1844e-07,0.05,0.56,0
0.0029534,-0.0001943,0.032975,0.011426,0.01332,-0.00061161,0,0,0.051102,-0.0049251,0,-0.0031804,0,0,0,0.032993,0.011408,0.01332,-1.6278,0.01924,0.020697,4.4233e-07,0.06,0.56,0
0.0034679,-0.00021003,0.033192,0.011049,0.013272,-0.00058079,0,0,0.051791,-0.0057812,0,-0.0030201,0,0,0,0.033208,0.011032,0.013272,-1.5048,0.019171,0.021146,4.6743e-07,0.07,0.56,0
0.0039893,-0.00022113,0.033422,0.010678,0.01323,-0.0005568,0,0,0.052498,-0.0066343,0,-0.0028954,0,0,0,0.033437,0.010663,0.01323,-1.405,0.01911,0.021605,4.9354e-07,0.08,0.56,0
0.0045178,-0.00022744,0.033664,0.010323,0.013196,-0.00053538,0,0,0.053217,-0.0074709,0,-0.002784,0,0,0,0.033678,0.010309,0.013196,-1.3169,0.019061,0.022068,5.2042e-07,0.09,0.56,0
0.0050536,-0.00022846,0.033924,0.0099892,0.013174,-0.00050672,0,0,0.053949,-0.00828,0,-0.0026349,0,0,0,0.033936,0.0099769,0.013174,-1.2165,0.019029,0.022532,5.4801e-07,0.1,0.56,0
0.0055968,-0.00022307,0.034218,0.0096833,0.01317,-0.00045464,0,0,0.054724,-0.0090666,0,-0.0023641,0,0,0,0.034229,0.0096729,0.01317,-1.0663,0.019024,0.023008,5.7732e-07,0.11,0.56,0
0.0061481,-0.00020943,0.034595,0.0093959,0.013197,-0.00036579,0,0,0.055634,-0.0098833,0,-0.0019021,0,0,0,0.034603,0.0093873,0.013197,-0.8389,0.019063,0.023544,6.1194e-07,0.12,0.56,0
0.0067095,-0.00018564,0.035072,0.009095,0.01325,-0.00022535,0,0,0.056738,-0.010804,0,-0.0011718,0,0,0,0.03508,0.0090871,0.01325,-0.51148,0.019139,0.024182,6.5524e-07,0.13,0.56,0
0.0072829,-0.00014759,0.036139,0.0086689,0.013442,-0.00020679,0,0,0.055477,-0.011421,0,-0.00090248,0,0,0,0.036151,0.0086572,0.013442,-0.42421,0.019417,0.025446,7.7793e-07,0.14,0.56,0
0.0078264,-0.00010635,0.036936,0.0082673,0.013561,-2.053e-05,0,0,0.048538,-0.010646,0,-0.00024148,0,0,0,0.036964,0.0082399,0.013561,0.029913,0.019588,0.026475,9.0418e-07,0.15,0.56,0
0.0082678,-0.00010034,0.036257,0.0081954,0.013336,0.00072164,0,0,0.039027,-0.0086314,0,0.0021555,0,0,0,0.036312,0.0081408,0.013336,1.6026,0.019263,0.02597,8.6135e-07,0.16,0.56,0
0.0086114,-0.0001463,0.035844,0.0082259,0.013221,0.0012758,0,0,0.032721,-0.0071852,0,0.0037263,0,0,0,0.035914,0.0081559,0.013221,2.7009,0.019097,0.025605,7.8969e-07,0.17,0.56,0
0.0089181,-0.00021806,0.036279,0.0080838,0.013309,0.0012982,0,0,0.030456,-0.0069085,0,0.0035008,0,0,0,0.036342,0.0080209,0.013309,2.6522,0.019224,0.026083,7.9611e-07,0.18,0.56,0
0.0092188,-0.00029294,0.036352,0.0078441,0.013259,0.0012462,0,0,0.030021,-0.0070391,0,0.0032401,0,0,0,0.036407,0.0077894,0.013259,2.4983,0.019152,0.026313,8.012e-07,0.19,0.56,0
0.0095185,-0.00036884,0.036205,0.0075682,0.013132,0.0012137,0,0,0.029995,-0.007233,0,0.0031558,0,0,0,0.036257,0.0075167,0.013132,2.4228,0.018968,0.026385,8.0119e-07,0.2,0.56,0
0.0098187,-0.00044747,0.036138,0.0072629,0.01302,0.0011704,0,0,0.030053,-0.0074847,0,0.003043,0,0,0,0.036186,0.0072155,0.01302,2.3175,0.018807,0.026548,8.0828e-07,0.21,0.56,0
0.01012,-0.00052901,0.036093,0.0069272,0.012906,0.0011294,0,0,0.030143,-0.0077725,0,0.0029365,0,0,0,0.036137,0.0068834,0.012906,2.2147,0.018642,0.026755,8.1815e-07,0.22,0.56,0
0.010422,-0.00061353,0.036048,0.0065542,0.012781,0.0010859,0,0,0.030248,-0.0080946,0,0.0028232,0,0,0,0.036088,0.0065142,0.012781,2.106,0.018461,0.026992,8.2942e-07,0.23,0.56,0
0.010725,-0.00070104,0.036,0.0061467,0.012644,0.0010399,0,0,0.030363,-0.0084464,0,0.0027036,0,0,0,0.036036,0.0061105,0.012644,1.993,0.018263,0.027253,8.4155e-07,0.24,0.56,0
0.011029,-0.00079149,0.035945,0.0057128,0.012497,0.00099089,0,0,0.030482,-0.0088199,0,0.0025763,0,0,0,0.035978,0.0056802,0.012497,1.8758,0.018052,0.02753,8.5404e-07,0.25,0.56,0
0.011334,-0.00088479,0.035883,0.005255,0.012341,0.0009378,0,0,0.030604,-0.0092122,0,0.0024383,0,0,0,0.035911,0.0052262,0.012341,1.7527,0.017826,0.027819,8.6658e-07,0.26,0.56,0
0.011641,-0.00098088,0.035812,0.0047716,0.012175,0.00088126,0,0,0.030728,-0.0096246,0,0.0022913,0,0,0,0.035837,0.0047465,0.012175,1.6256,0.017586,0.028123,8.7915e-07,0.27,0.56,0
0.011949,-0.0010796,0.035734,0.0042608,0.011998,0.00082521,0,0,0.030856,-0.010059,0,0.0021455,0,0,0,0.035756,0.004239,0.011998,1.5015,0.017331,0.028443,8.918e-07,0.28,0.56,0
0.012258,-0.0011807,0.035648,0.0037238,0.011811,0.00077588,0,0,0.030987,-0.010514,0,0.0020173,0,0,0,0.035667,0.0037048,0.011811,1.3919,0.017061,0.028779,9.0439e-07,0.29,0.56,0
0.012569,-0.0012838,0.035551,0.0031657,0.011615,0.00074019,0,0,0.031116,-0.010984,0,0.0019245,0,0,0,0.035568,0.0031486,0.011615,1.3089,0.016777,0.029124,9.1646e-07,0.3,0.56,0
0.01288,-0.0013883,0.035438,0.0025957,0.01141,0.00072406,0,0,0.031236,-0.011459,0,0.0018826,0,0,0,0.035454,0.0025795,0.01141,1.2623,0.016481,0.029469,9.2725e-07,0.31,0.56,0
0.013193,-0.0014937,0.035303,0.002027,0.011199,0.00073059,0,0,0.031335,-0.011924,0,0.0018995,0,0,0,0.035319,0.0020107,0.011199,1.2567,0.016176,0.029797,9.3569e-07,0.32,0.56,0
0.013507,-0.0015993,0.035139,0.0014745,0.010984,0.00075854,0,0,0.031401,-0.012362,0,0.0019722,0,0,0,0.035157,0.001457,0.010984,1.2895,0.015866,0.03009,9.4069e-07,0.33,0.56,0
0.013821,-0.0017044,0.034939,0.00095151,0.010767,0.0008018,0,0,0.031423,-0.01276,0,0.0020847,0,0,0,0.034959,0.00093188,0.010767,1.3499,0.015553,0.03033,9.4127e-07,0.34,0.56,0
0.014135,-0.0018086,0.034698,0.00046624,0.010549,0.00084998,0,0,0.031394,-0.013108,0,0.00221,0,0,0,0.034721,0.00044412,0.010549,1.421,0.015238,0.030506,9.3688e-07,0.35,0.56,0
0.014449,-0.0019116,0.034416,1.9613e-05,0.010331,0.00089024,0,0,0.031311,-0.013405,0,0.0023146,0,0,0,0.034441,-4.7934e-06,0.010331,1.4816,0.014922,0.030616,9.2746e-07,0.36,0.56,0
0.014762,-0.0020132,0.034095,-0.00039579,0.01011,0.00090942,0,0,0.031181,-0.013657,0,0.0023645,0,0,0,0.034121,-0.0004215,0.01011,1.5101,0.014603,0.030665,9.1359e-07,0.37,0.56,0
0.015073,-0.0021136,0.033743,-0.00079538,0.0098844,0.00089633,0,0,0.031017,-0.013884,0,0.0023305,0,0,0,0.033769,-0.00082071,0.0098844,1.4875,0.014278,0.030672,8.9641e-07,0.38,0.56,0
0.015382,-0.0022127,0.033374,-0.0012017,0.0096516,0.00084445,0,0,0.030839,-0.014109,0,0.0021956,0,0,0,0.033397,-0.0012246,0.0096516,1.4016,0.013941,0.030666,8.7767e-07,0.39,0.56,0
0.01569,-0.0023106,0.033004,-0.001643,0.0094084,0.00075588,0,0,0.030675,-0.014367,0,0.0019653,0,0,0,0.033023,-0.0016619,0.0094084,1.2541,0.01359,0.030686,8.5949e-07,0.4,0.56,0
0.015996,-0.002407,0.032652,-0.0021479,0.0091513,0.00064633,0,0,0.030551,-0.014689,0,0.0016805,0,0,0,0.032666,-0.0021621,0.0091513,1.0698,0.013219,0.030774,8.4381e-07,0.41,0.56,0
0.016301,-0.0025008,0.032331,-0.0027238,0.0088822,0.00054507,0,0,0.030484,-0.015088,0,0.0014172,0,0,0,0.032341,-0.0027339,0.0088822,0.89717,0.01283,0.030948,8.3164e-07,0.42,0.56,0
0.016605,-0.0025902,0.032063,-0.0033286,0.0086203,0.0004811,0,0,0.030476,-0.015534,0,0.0012509,0,0,0,0.032071,-0.0033363,0.0086203,0.78491,0.012452,0.031198,8.2371e-07,0.43,0.56,0
0.01691,-0.0026726,0.031894,-0.0038973,0.0083989,0.00049665,0,0,0.030543,-0.015985,0,0.0012913,0,0,0,0.031901,-0.0039051,0.0083989,0.80052,0.012132,0.031511,8.2226e-07,0.44,0.56,0
0.017216,-0.0027431,0.031598,-0.0041596,0.0082316,0.00052714,0,0,0.030949,-0.016399,0,0.0013666,0,0,0,0.031607,-0.0041688,0.0082316,0.83731,0.01189,0.031466,8.1568e-07,0.45,0.56,0
0.017527,-0.0028021,0.031135,-0.0037697,0.0082095,0.0003962,0,0,0.033022,-0.017128,0,0.00097738,0,0,0,0.031144,-0.003779,0.0082095,0.58881,0.011858,0.030737,8.0499e-07,0.46,0.56,0
0.017873,-0.0028803,0.031584,-0.0029928,0.0085772,0.00032651,0,0,0.038919,-0.019148,0,0.00089127,0,0,0,0.031595,-0.0030045,0.0085772,0.43238,0.012389,0.030513,8.578e-07,0.47,0.56,0
0.01831,-0.0030164,0.032401,-0.0018567,0.0091634,0.00036989,0,0,0.048032,-0.022091,0,0.0012229,0,0,0,0.032414,-0.0018697,0.0091634,0.52824,0.013236,0.030329,8.8779e-07,0.48,0.56,0
0.018847,-0.0031849,0.031986,-0.00046501,0.0094563,0.00032119,0,0,0.055008,-0.023864,0,0.0013763,0,0,0,0.031995,-0.00047372,0.0094563,0.54255,0.013659,0.028826,7.8283e-07,0.49,0.56,0
0.019418,-0.0033271,0.031321,0.00024888,0.0094709,0.00048037,0,0,0.05681,-0.023977,0,0.0024979,0,0,0,0.031332,0.00023778,0.0094709,0.89659,0.01368,0.027659,6.9495e-07,0.5,0.56,0
0.019983,-0.0034273,0.031184,0.00033126,0.0094545,0.00081576,0,0,0.056496,-0.02372,0,0.004242,0,0,0,0.031207,0.00030807,0.0094545,1.515,0.013656,0.027492,6.84e-07,0.51,0.56,0
0.020548,-0.0034938,0.031195,0.00033581,0.0094592,0.0010615,0,0,0.056513,-0.023721,0,0.00552,0,0,0,0.031232,0.00029837,0.0094592,1.9642,0.013663,0.027522,6.8553e-07,0.52,0.56,0
0.021114,-0.0035315,0.031331,0.00030806,0.0094918,0.0012388,0,0,0.056782,-0.023878,0,0.0064416,0,0,0,0.031381,0.00025789,0.0094918,2.2779,0.01371,0.027687,6.9626e-07,0.53,0.56,0
0.021683,-0.0035454,0.031525,0.00028826,0.0095441,0.0013589,0,0,0.057151,-0.024065,0,0.0070664,0,0,0,0.031585,0.00022855,0.0095441,2.4815,0.013786,0.027891,7.1049e-07,0.54,0.56,0
0.022257,-0.0035401,0.031736,0.00029397,0.009609,0.0014363,0,0,0.05753,-0.024219,0,0.0074686,0,0,0,0.031802,0.00022789,0.009609,2.606,0.01388,0.028084,7.2512e-07,0.55,0.56,0
0.022834,-0.0035194,0.031944,0.00032597,0.009681,0.0014781,0,0,0.057884,-0.024323,0,0.007686,0,0,0,0.032013,0.0002565,0.009681,2.6675,0.013984,0.028249,7.3883e-07,0.56,0.56,0
0.023414,-0.0034865,0.03214,0.00037691,0.009755,0.0014891,0,0,0.058201,-0.024383,0,0.0077435,0,0,0,0.03221,0.0003068,0.009755,2.6758,0.014091,0.028384,7.5115e-07,0.57,0.56,0
0.023998,-0.0034445,0.032321,0.00044037,0.0098284,0.0014736,0,0,0.058481,-0.024409,0,0.0076628,0,0,0,0.032389,0.00037201,0.0098284,2.6388,0.014197,0.028491,7.6201e-07,0.58,0.56,0
0.024584,-0.0033958,0.032486,0.00051151,0.0098993,0.0014345,0,0,0.058726,-0.024408,0,0.0074595,0,0,0,0.032551,0.00044693,0.0098993,2.5621,0.014299,0.028575,7.7146e-07,0.59,0.56,0
0.025172,-0.0033428,0.032636,0.00058466,0.0099663,0.0013739,0,0,0.058942,-0.024392,0,0.0071442,0,0,0,0.032695,0.00052554,0.0099663,2.4487,0.014396,0.028641,7.7969e-07,0.6,0.56,0
0.025763,-0.0032872,0.032773,0.00065316,0.010028,0.001294,0,0,0.059138,-0.024374,0,0.006729,0,0,0,0.032825,0.00060077,0.010028,2.3023,0.014485,0.028697,7.8701e-07,0.61,0.56,0
0.026355,-0.0032307,0.032899,0.00071087,0.010083,0.0011982,0,0,0.059321,-0.024367,0,0.0062308,0,0,0,0.032944,0.00066597,0.010083,2.1281,0.014564,0.02875,7.9379e-07,0.62,0.56,0
0.026949,-0.0031747,0.033016,0.00075335,0.010131,0.0010906,0,0,0.059502,-0.024382,0,0.0056711,0,0,0,0.033053,0.00071616,0.010131,1.9332,0.014633,0.028808,8.0039e-07,0.63,0.56,0
0.027545,-0.0031204,0.033127,0.00077811,0.010172,0.0009755,0,0,0.059684,-0.024423,0,0.0050726,0,0,0,0.033157,0.00074834,0.010172,1.7252,0.014692,0.028874,8.0707e-07,0.64,0.56,0
0.028143,-0.0030683,0.033233,0.00078429,0.010205,0.00085701,0,0,0.059872,-0.024494,0,0.0044565,0,0,0,0.033256,0.0007613,0.010205,1.5115,0.014741,0.028952,8.14e-07,0.65,0.56,0
0.028743,-0.0030193,0.033334,0.0007723,0.010232,0.00073872,0,0,0.060065,-0.024595,0,0.0038414,0,0,0,0.033351,0.00075519,0.010232,1.2987,0.014779,0.029041,8.2125e-07,0.66,0.56,0
0.029344,-0.0029735,0.033431,0.0007434,0.010252,0.00062354,0,0,0.060265,-0.024723,0,0.0032424,0,0,0,0.033443,0.00073117,0.010252,1.0923,0.014809,0.029142,8.2882e-07,0.67,0.56,0
0.029948,-0.0029313,0.033524,0.00069937,0.010267,0.00051371,0,0,0.060469,-0.024876,0,0.0026713,0,0,0,0.033533,0.00069103,0.010267,0.89638,0.01483,0.029254,8.3667e-07,0.68,0.56,0
0.030554,-0.0028928,0.033613,0.00064231,0.010277,0.0004109,0,0,0.060675,-0.025049,0,0.0021367,0,0,0,0.033618,0.00063693,0.010277,0.71396,0.014844,0.029373,8.4471e-07,0.69,0.56,0
0.031161,-0.0028578,0.033698,0.00057443,0.010282,0.00031622,0,0,0.060882,-0.025239,0,0.0016443,0,0,0,0.033701,0.00057118,0.010282,0.54702,0.014851,0.029499,8.5286e-07,0.7,0.56,0
0.031771,-0.0028263,0.033778,0.00049791,0.010283,0.00023032,0,0,0.061087,-0.02544,0,0.0011977,0,0,0,0.033779,0.00049613,0.010283,0.39664,0.014853,0.029628,8.6101e-07,0.71,0.56,0
0.032383,-0.0027981,0.033853,0.00041486,0.01028,0.00015351,0,0,0.061288,-0.02565,0,0.00079825,0,0,0,0.033853,0.00041399,0.01028,0.26318,0.014849,0.029759,8.6907e-07,0.72,0.56,0
0.032997,-0.0027731,0.033922,0.00032718,0.010275,8.5771e-05,0,0,0.061484,-0.025864,0,0.00044601,0,0,0,0.033923,0.00032684,0.010275,0.14643,0.014842,0.02989,8.7695e-07,0.73,0.56,0
0.033613,-0.002751,0.033987,0.00023662,0.010267,2.6873e-05,0,0,0.061672,-0.026079,0,0.00013974,0,0,0,0.033987,0.0002365,0.010267,0.045768,0.01483,0.03002,8.8456e-07,0.74,0.56,0
0.03423,-0.0027315,0.034047,0.00014468,0.010257,-2.3584e-05,0,0,0.061852,-0.026293,0,-0.00012263,0,0,0,0.034047,0.00014458,0.010257,-0.03972,0.014816,0.030146,8.9186e-07,0.75,0.56,0
0.03485,-0.0027146,0.034101,5.2666e-05,0.010246,-6.6112e-05,0,0,0.062023,-0.026503,0,-0.00034378,0,0,0,0.034101,5.2477e-05,0.010246,-0.11113,0.0148,0.030268,8.9878e-07,0.76,0.56,0
0.035471,-0.0026999,0.034151,-3.8332e-05,0.010234,-0.0001013,0,0,0.062184,-0.026707,0,-0.00052674,0,0,0,0.034151,-3.8678e-05,0.010234,-0.16965,0.014782,0.030385,9.0528e-07,0.77,0.56,0
0.036094,-0.0026871,0.034195,-0.00012741,0.01022,-0.00012976,0,0,0.062334,-0.026904,0,-0.00067473,0,0,0,0.034196,-0.00012794,0.01022,-0.21651,0.014763,0.030496,9.1136e-07,0.78,0.56,0
0.036718,-0.0026762,0.034235,-0.00021386,0.010206,-0.00015212,0,0,0.062474,-0.027092,0,-0.00079105,0,0,0,0.034235,-0.00021455,0.010206,-0.25294,0.014742,0.030601,9.1699e-07,0.79,0.56,0
0.037343,-0.0026668,0.03427,-0.00029708,0.010192,-0.00016902,0,0,0.062603,-0.027271,0,-0.00087891,0,0,0,0.034271,-0.00029793,0.010192,-0.28009,0.014721,0.030699,9.2217e-07,0.8,0.56,0
0.03797,-0.0026589,0.034301,-0.00037666,0.010177,-0.00018104,0,0,0.062721,-0.02744,0,-0.00094143,0,0,0,0.034302,-0.00037762,0.010177,-0.29907,0.0147,0.03079,9.2691e-07,0.81,0.56,0
0.038597,-0.0026522,0.034328,-0.00045225,0.010163,-0.00018876,0,0,0.062829,-0.027599,0,-0.00098154,0,0,0,0.034329,-0.00045329,0.010163,-0.31091,0.014679,0.030875,9.3122e-07,0.82,0.56,0
0.039226,-0.0026465,0.034351,-0.00052365,0.010148,-0.00019269,0,0,0.062928,-0.027747,0,-0.001002,0,0,0,0.034352,-0.00052472,0.010148,-0.31653,0.014659,0.030953,9.3511e-07,0.83,0.56,0
0.039856,-0.0026418,0.034371,-0.00059068,0.010134,-0.00019332,0,0,0.063016,-0.027885,0,-0.0010052,0,0,0,0.034372,-0.00059175,0.010134,-0.31678,0.014638,0.031024,9.3861e-07,0.84,0.56,0
0.040487,-0.0026379,0.034388,-0.00065327,0.010121,-0.00019108,0,0,0.063096,-0.028012,0,-0.00099362,0,0,0,0.034389,-0.00065432,0.010121,-0.31241,0.014619,0.03109,9.4174e-07,0.85,0.56,0
0.041118,-0.0026347,0.034403,-0.00071138,0.010107,-0.00018638,0,0,0.063168,-0.028129,0,-0.00096917,0,0,0,0.034404,-0.00071238,0.010107,-0.3041,0.0146,0.031149,9.4452e-07,0.86,0.56,0
0.04175,-0.0026321,0.034415,-0.00076503,0.010095,-0.00017956,0,0,0.063232,-0.028236,0,-0.00093373,0,0,0,0.034416,-0.00076595,0.010095,-0.29243,0.014582,0.031203,9.4698e-07,0.87,0.56,0
0.042383,-0.00263,0.034425,-0.00081424,0.010083,-0.00017095,0,0,0.063289,-0.028333,0,-0.00088893,0,0,0,0.034426,-0.00081507,0.010083,-0.27794,0.014565,0.031251,9.4914e-07,0.88,0.56,0
0.043016,-0.0026283,0.034433,-0.00085908,0.010072,-0.00016081,0,0,0.063338,-0.028421,0,-0.00083622,0,0,0,0.034434,-0.00085982,0.010072,-0.26107,0.014549,0.031294,9.5103e-07,0.89,0.56,0
0.043649,-0.002627,0.03444,-0.00089962,0.010062,-0.0001494,0,0,0.063382,-0.0285,0,-0.00077686,0,0,0,0.03444,-0.00090026,0.010062,-0.24222,0.014534,0.031332,9.5267e-07,0.9,0.56,0
0.044283,-0.0026259,0.034445,-0.00093595,0.010053,-0.00013691,0,0,0.06342,-0.028571,0,-0.00071195,0,0,0,0.034445,-0.00093648,0.010053,-0.22172,0.014521,0.031366,9.5408e-07,0.91,0.56,0
0.044918,-0.0026251,0.034449,-0.00096815,0.010044,-0.00012355,0,0,0.063452,-0.028632,0,-0.00064244,0,0,0,0.03445,-0.00096859,0.010044,-0.19987,0.014508,0.031395,9.5528e-07,0.92,0.56,0
0.045552,-0.0026245,0.034452,-0.00099632,0.010037,-0.00010945,0,0,0.06348,-0.028686,0,-0.00056916,0,0,0,0.034453,-0.00099666,0.010037,-0.17692,0.014498,0.031421,9.563e-07,0.93,0.56,0
0.046187,-0.002624,0.034455,-0.0010205,0.01003,-9.4775e-05,0,0,0.063504,-0.028732,0,-0.00049283,0,0,0,0.034455,-0.0010208,0.01003,-0.15307,0.014488,0.031442,9.5715e-07,0.94,0.56,0
0.046822,-0.0026237,0.034456,-0.0010409,0.010025,-7.9625e-05,0,0,0.063523,-0.02877,0,-0.00041405,0,0,0,0.034457,-0.0010411,0.010025,-0.12853,0.01448,0.03146,9.5784e-07,0.95,0.56,0
0.047458,-0.0026234,0.034458,-0.0010574,0.01002,-6.4107e-05,0,0,0.063538,-0.028802,0,-0.00033336,0,0,0,0.034458,-0.0010575,0.01002,-0.10343,0.014473,0.031474,9.5839e-07,0.96,0.56,0
0.048093,-0.0026232,0.034459,-0.0010702,0.010017,-4.8311e-05,0,0,0.06355,-0.028826,0,-0.00025122,0,0,0,0.034459,-0.0010703,0.010017,-0.077911,0.014468,0.031485,9.5881e-07,0.97,0.56,0
0.048729,-0.0026231,0.034459,-0.0010793,0.010014,-3.2314e-05,0,0,0.063558,-0.028843,0,-0.00016803,0,0,0,0.034459,-0.0010794,0.010014,-0.0521,0.014465,0.031493,9.591e-07,0.98,0.56,0
0.049364,-0.0026231,0.03446,-0.0010848,0.010012,-1.6095e-05,0,0,0.063563,-0.028853,0,-8.3696e-05,0,0,0,0.03446,-0.0010848,0.010012,-0.025946,0.014462,0.031498,9.5927e-07,0.99,0.56,0
0.049682,-0.0026231,0.03446,-0.0010866,0.010012,-7.9156e-06,0,0,0.063564,-0.028856,0,-4.1161e-05,0,0,0,0.03446,-0.0010866,0.010012,-0.012759,0.014462,0.031499,9.5933e-07,1,0.56,0
0.0002374,-2.6582e-05,0.031939,0.013468,0.013622,-0.0010189,0,0,0.047625,-0.00040111,0,-0.0052981,0,0,0,0.031996,0.013411,0.013622,-3.1489,0.019676,0.018481,3.2402e-07,0,0.57,0
0.00047625,-5.1868e-05,0.03197,0.013262,0.01357,-0.0010039,0,0,0.047841,-0.00079983,0,-0.0052201,0,0,0,0.032024,0.013207,0.01357,-3.0656,0.0196,0.018639,3.3218e-07,0.01,0.57,0
0.00095682,-9.9892e-05,0.032081,0.012873,0.013486,-0.00096378,0,0,0.048348,-0.0015954,0,-0.0050117,0,0,0,0.03213,0.012823,0.013486,-2.8691,0.01948,0.018985,3.5006e-07,0.02,0.57,0
0.0014432,-0.0001429,0.032246,0.012506,0.013426,-0.00091647,0,0,0.048934,-0.002392,0,-0.0047656,0,0,0,0.03229,0.012462,0.013426,-2.6561,0.019392,0.019365,3.6989e-07,0.03,0.57,0
0.0019355,-0.00018105,0.032418,0.012137,0.013367,-0.00087514,0,0,0.049534,-0.0031964,0,-0.0045507,0,0,0,0.032457,0.012099,0.013367,-2.4698,0.019307,0.019755,3.9055e-07,0.04,0.57,0
0.0024339,-0.00021445,0.032598,0.011767,0.013309,-0.00084049,0,0,0.05015,-0.0040109,0,-0.0043705,0,0,0,0.032633,0.011732,0.013309,-2.3102,0.019225,0.020159,4.1216e-07,0.05,0.57,0
0.0029385,-0.0002432,0.032786,0.011395,0.013255,-0.00081325,0,0,0.050783,-0.0048339,0,-0.0042289,0,0,0,0.032818,0.011363,0.013255,-2.1775,0.019145,0.020575,4.3474e-07,0.06,0.57,0
0.0034495,-0.00026734,0.032984,0.011026,0.013203,-0.00079349,0,0,0.051431,-0.0056607,0,-0.0041261,0,0,0,0.033014,0.010996,0.013203,-2.0702,0.019071,0.021002,4.5822e-07,0.07,0.57,0
0.0039671,-0.00028683,0.03319,0.010661,0.013155,-0.00077986,0,0,0.05209,-0.0064844,0,-0.0040553,0,0,0,0.033218,0.010633,0.013155,-1.9837,0.019002,0.021436,4.8247e-07,0.08,0.57,0
0.0044913,-0.0003014,0.033405,0.010306,0.013113,-0.00076873,0,0,0.052758,-0.0072984,0,-0.0039974,0,0,0,0.033432,0.01028,0.013113,-1.9078,0.018942,0.021874,5.0739e-07,0.09,0.57,0
0.0050223,-0.00031052,0.033632,0.0099622,0.013078,-0.00075389,0,0,0.05344,-0.008102,0,-0.0039202,0,0,0,0.033658,0.009937,0.013078,-1.8267,0.018891,0.022317,5.331e-07,0.1,0.57,0
0.0055601,-0.00031323,0.033878,0.0096248,0.013051,-0.00072873,0,0,0.054151,-0.0089078,0,-0.0037894,0,0,0,0.033902,0.0096015,0.013051,-1.7248,0.018851,0.022773,5.6015e-07,0.11,0.57,0
0.0061053,-0.00030817,0.034134,0.0092764,0.013023,-0.00068942,0,0,0.054889,-0.0097418,0,-0.003585,0,0,0,0.034155,0.0092555,0.013023,-1.5947,0.018811,0.023247,5.8883e-07,0.12,0.57,0
0.0066579,-0.00029329,0.034378,0.0089173,0.012989,-0.00061498,0,0,0.055612,-0.010585,0,-0.0031979,0,0,0,0.034395,0.0089004,0.012989,-1.3939,0.018761,0.023717,6.1776e-07,0.13,0.57,0
0.0072175,-0.0002629,0.034955,0.0084926,0.013034,-0.00056854,0,0,0.055684,-0.011465,0,-0.0028949,0,0,0,0.034969,0.0084786,0.013034,-1.2419,0.018827,0.024534,6.8924e-07,0.14,0.57,0
0.0077753,-0.00021949,0.035884,0.008095,0.013194,-0.00042896,0,0,0.052932,-0.011772,0,-0.0022601,0,0,0,0.035902,0.0080775,0.013194,-0.89623,0.019058,0.025653,8.076e-07,0.15,0.57,0
0.0082897,-0.00019543,0.035688,0.0078199,0.013052,0.00022376,0,0,0.04586,-0.010472,0,0.00035753,0,0,0,0.035732,0.0077759,0.013052,0.55489,0.018854,0.025732,8.2917e-07,0.16,0.57,0
0.008705,-0.00022229,0.034919,0.0077112,0.012789,0.0010433,0,0,0.037079,-0.0083257,0,0.0032822,0,0,0,0.034995,0.0076354,0.012789,2.312,0.018473,0.025189,7.6049e-07,0.17,0.57,0
0.0090305,-0.00028742,0.035492,0.007833,0.012997,0.0013251,0,0,0.031359,-0.0071026,0,0.0037779,0,0,0,0.035564,0.0077606,0.012997,2.7823,0.018774,0.025594,7.58e-07,0.18,0.57,0
0.0093287,-0.00036317,0.036245,0.0078233,0.01322,0.0012714,0,0,0.029931,-0.0070162,0,0.0033056,0,0,0,0.036302,0.0077661,0.01322,2.5579,0.019096,0.026237,7.9451e-07,0.19,0.57,0
0.0096292,-0.00044131,0.036339,0.0075667,0.013172,0.0012339,0,0,0.030117,-0.0072864,0,0.0032081,0,0,0,0.036392,0.0075137,0.013172,2.4518,0.019026,0.026506,8.1153e-07,0.2,0.57,0
0.0099311,-0.00052256,0.036357,0.0072833,0.013092,0.001206,0,0,0.030244,-0.0075514,0,0.0031355,0,0,0,0.036407,0.0072333,0.013092,2.3714,0.018911,0.02673,8.2434e-07,0.21,0.57,0
0.010234,-0.00060698,0.036334,0.0069663,0.01299,0.0011719,0,0,0.030347,-0.0078309,0,0.0030469,0,0,0,0.036381,0.0069195,0.01299,2.2817,0.018763,0.026944,8.3529e-07,0.22,0.57,0
0.010538,-0.0006947,0.036286,0.0065942,0.012864,0.0011334,0,0,0.030448,-0.0081506,0,0.0029468,0,0,0,0.036329,0.0065509,0.012864,2.1831,0.018581,0.027177,8.464e-07,0.23,0.57,0
0.010843,-0.0007857,0.036226,0.0061848,0.012723,0.0010965,0,0,0.030553,-0.0084999,0,0.0028509,0,0,0,0.036266,0.0061447,0.012723,2.0877,0.018378,0.02743,8.5798e-07,0.24,0.57,0
0.011149,-0.00087983,0.036156,0.0057556,0.012573,0.0010595,0,0,0.030657,-0.0088631,0,0.0027546,0,0,0,0.036193,0.0057186,0.012573,1.9937,0.018162,0.027691,8.693e-07,0.25,0.57,0
0.011456,-0.00097699,0.036074,0.0053065,0.012414,0.0010164,0,0,0.030758,-0.00924,0,0.0026425,0,0,0,0.036108,0.0052728,0.012414,1.8901,0.017932,0.027957,8.802e-07,0.26,0.57,0
0.011764,-0.0010771,0.035983,0.0048278,0.012243,0.00096669,0,0,0.030862,-0.00964,0,0.0025134,0,0,0,0.036013,0.0047977,0.012243,1.7759,0.017685,0.028239,8.9109e-07,0.27,0.57,0
0.012073,-0.0011802,0.035885,0.004314,0.01206,0.0009163,0,0,0.030973,-0.010069,0,0.0023824,0,0,0,0.035911,0.0042872,0.01206,1.6614,0.017419,0.028544,9.0238e-07,0.28,0.57,0
0.012384,-0.0012858,0.03578,0.0037655,0.011864,0.0008739,0,0,0.031091,-0.010528,0,0.0022721,0,0,0,0.035804,0.0037414,0.011864,1.5627,0.017136,0.028872,9.1407e-07,0.29,0.57,0
0.012695,-0.0013937,0.035667,0.0031872,0.011656,0.00084904,0,0,0.031214,-0.01101,0,0.0022075,0,0,0,0.035689,0.0031648,0.011656,1.4963,0.016837,0.02922,9.2569e-07,0.3,0.57,0
0.013008,-0.001503,0.035538,0.00259,0.011439,0.00085046,0,0,0.03133,-0.011503,0,0.0022112,0,0,0,0.035561,0.0025678,0.011439,1.477,0.016522,0.029573,9.363e-07,0.31,0.57,0
0.013322,-0.0016131,0.035386,0.0019915,0.011213,0.00088355,0,0,0.031425,-0.011988,0,0.0022972,0,0,0,0.03541,0.0019677,0.011213,1.5134,0.016197,0.029912,9.4454e-07,0.32,0.57,0
0.013636,-0.0017231,0.035201,0.001413,0.010984,0.00094766,0,0,0.031482,-0.012443,0,0.0024639,0,0,0,0.035229,0.0013858,0.010984,1.6037,0.015866,0.03021,9.489e-07,0.33,0.57,0
0.013951,-0.0018323,0.034974,0.0008744,0.010754,0.001035,0,0,0.031485,-0.012844,0,0.002691,0,0,0,0.035006,0.00084202,0.010754,1.7352,0.015534,0.030444,9.4799e-07,0.34,0.57,0
0.014266,-0.0019399,0.034697,0.00038822,0.010526,0.0011319,0,0,0.031423,-0.013178,0,0.0029428,0,0,0,0.034736,0.00034948,0.010526,1.8859,0.015204,0.030595,9.4095e-07,0.35,0.57,0
0.01458,-0.0020457,0.034366,-4.3434e-05,0.010297,0.0012212,0,0,0.03129,-0.013442,0,0.003175,0,0,0,0.034412,-8.8655e-05,0.010297,2.0289,0.014873,0.030657,9.2755e-07,0.36,0.57,0
0.014892,-0.0021496,0.033983,-0.00042945,0.010066,0.0012858,0,0,0.031092,-0.013644,0,0.003343,0,0,0,0.034033,-0.00047993,0.010066,2.1365,0.01454,0.030634,9.0822e-07,0.37,0.57,0
0.015202,-0.0022518,0.03355,-0.00078841,0.0098285,0.0013105,0,0,0.030838,-0.013802,0,0.0034072,0,0,0,0.033603,-0.00084148,0.0098285,2.1833,0.014197,0.030541,8.8397e-07,0.38,0.57,0
0.015509,-0.0023529,0.033077,-0.0011472,0.009579,0.0012836,0,0,0.030548,-0.013944,0,0.0033373,0,0,0,0.033129,-0.001199,0.009579,2.1476,0.013836,0.030407,8.5642e-07,0.39,0.57,0
0.015813,-0.002453,0.032582,-0.0015413,0.0093123,0.0012004,0,0,0.030251,-0.01411,0,0.0031212,0,0,0,0.032629,-0.0015878,0.0093123,2.0176,0.013451,0.030276,8.2788e-07,0.4,0.57,0
0.016114,-0.0025523,0.032087,-0.0020183,0.0090206,0.0010727,0,0,0.029986,-0.014351,0,0.0027891,0,0,0,0.032125,-0.0020564,0.0090206,1.808,0.01303,0.030207,8.0112e-07,0.41,0.57,0
0.016412,-0.0026499,0.031594,-0.0026244,0.0086908,0.00094002,0,0,0.029774,-0.01471,0,0.002444,0,0,0,0.031624,-0.0026543,0.0086908,1.5827,0.012553,0.030246,7.7716e-07,0.42,0.57,0
0.016709,-0.0027436,0.031081,-0.0033245,0.0083271,0.00085503,0,0,0.029581,-0.015147,0,0.0022231,0,0,0,0.031107,-0.0033499,0.0083271,1.4347,0.012028,0.030353,7.5375e-07,0.43,0.57,0
0.017004,-0.0028303,0.030556,-0.003965,0.0079772,0.00083658,0,0,0.029352,-0.015525,0,0.0021751,0,0,0,0.03058,-0.0039897,0.0079772,1.4028,0.011523,0.030408,7.2904e-07,0.44,0.57,0
0.017296,-0.0029057,0.029618,-0.0041918,0.0076279,0.00072798,0,0,0.03056,-0.01625,0,0.0018816,0,0,0,0.029642,-0.0042153,0.0076279,1.2125,0.011018,0.029766,6.8419e-07,0.45,0.57,0
0.017612,-0.0029776,0.029024,-0.0037249,0.0075897,0.00054689,0,0,0.035631,-0.018324,0,0.0015974,0,0,0,0.029045,-0.0037461,0.0075897,0.88613,0.010963,0.02886,6.6984e-07,0.46,0.57,0
0.018008,-0.0030847,0.0298,-0.0027813,0.0081056,0.00050876,0,0,0.04365,-0.021452,0,0.001927,0,0,0,0.029817,-0.0027986,0.0081056,0.81941,0.011708,0.028768,7.2709e-07,0.47,0.57,0
0.018497,-0.0032488,0.030282,-0.0015992,0.0086047,0.00045574,0,0,0.050399,-0.02348,0,0.0019944,0,0,0,0.030292,-0.0016094,0.0086047,0.77057,0.012429,0.028219,7.2088e-07,0.48,0.57,0
0.019029,-0.003425,0.029808,-0.00054669,0.0087784,0.000392,0,0,0.053378,-0.023597,0,0.0019437,0,0,0,0.029815,-0.0005531,0.0087784,0.7271,0.01268,0.026944,6.3414e-07,0.49,0.57,0
0.019568,-0.0035644,0.029614,-6.9803e-05,0.0088632,0.00052298,0,0,0.053952,-0.023226,0,0.0027195,0,0,0,0.029625,-8.0442e-05,0.0088632,1.0056,0.012802,0.026395,5.9506e-07,0.5,0.57,0
0.020108,-0.0036626,0.029795,7.446e-05,0.0089607,0.0007102,0,0,0.054168,-0.023104,0,0.0036931,0,0,0,0.029813,5.6326e-05,0.0089607,1.3597,0.012943,0.026453,6.0246e-07,0.51,0.57,0
0.020651,-0.0037288,0.030047,0.00016158,0.0090625,0.00084626,0,0,0.054559,-0.023142,0,0.0044005,0,0,0,0.030072,0.00013605,0.0090625,1.6102,0.01309,0.02662,6.1591e-07,0.52,0.57,0
0.021199,-0.0037678,0.030346,0.0001769,0.009157,0.00096506,0,0,0.055092,-0.023348,0,0.0050183,0,0,0,0.030379,0.0001441,0.009157,1.8197,0.013227,0.026887,6.3438e-07,0.53,0.57,0
0.021753,-0.0037837,0.03068,0.00018282,0.0092588,0.0010725,0,0,0.055695,-0.023598,0,0.0055769,0,0,0,0.03072,0.0001432,0.0092588,2.0026,0.013374,0.02719,6.5568e-07,0.54,0.57,0
0.022313,-0.0037801,0.031019,0.00022129,0.009372,0.0011608,0,0,0.056282,-0.023792,0,0.0060362,0,0,0,0.031064,0.00017593,0.009372,2.1486,0.013537,0.02747,6.77e-07,0.55,0.57,0
0.022879,-0.0037605,0.031339,0.00028675,0.0094878,0.0012211,0,0,0.056814,-0.023923,0,0.0063498,0,0,0,0.031389,0.00023743,0.0094878,2.2432,0.013705,0.027709,6.9678e-07,0.56,0.57,0
0.02345,-0.0037283,0.031632,0.00036418,0.0095988,0.0012536,0,0,0.057286,-0.02401,0,0.0065189,0,0,0,0.031683,0.00031288,0.0095988,2.2883,0.013865,0.027911,7.1461e-07,0.57,0.57,0
0.024025,-0.0036866,0.031895,0.00045085,0.0097038,0.0012619,0,0,0.057698,-0.024058,0,0.006562,0,0,0,0.031947,0.00039941,0.0097038,2.2915,0.014017,0.028076,7.3037e-07,0.58,0.57,0
0.024604,-0.003638,0.03213,0.00054607,0.009803,0.0012466,0,0,0.058051,-0.024068,0,0.0064822,0,0,0,0.03218,0.00049626,0.009803,2.2545,0.01416,0.028207,7.4399e-07,0.59,0.57,0
0.025186,-0.0035848,0.032339,0.00064331,0.0098946,0.0012067,0,0,0.058354,-0.024053,0,0.0062746,0,0,0,0.032385,0.00059687,0.0098946,2.1754,0.014292,0.028309,7.5566e-07,0.6,0.57,0
0.025771,-0.0035291,0.032524,0.00073299,0.009977,0.0011432,0,0,0.058621,-0.024034,0,0.0059444,0,0,0,0.032565,0.00069143,0.009977,2.0555,0.014411,0.028393,7.6585e-07,0.61,0.57,0
0.026358,-0.0034726,0.03269,0.00080715,0.010049,0.0010597,0,0,0.058866,-0.024029,0,0.0055104,0,0,0,0.032726,0.00077148,0.010049,1.9005,0.014515,0.028473,7.7514e-07,0.62,0.57,0
0.026948,-0.0034168,0.032843,0.00086081,0.010111,0.00096138,0,0,0.059102,-0.024051,0,0.0049992,0,0,0,0.032872,0.00083146,0.010111,1.7195,0.014605,0.028555,7.84e-07,0.63,0.57,0
0.02754,-0.0033629,0.032984,0.00089178,0.010163,0.0008536,0,0,0.059336,-0.024105,0,0.0044387,0,0,0,0.033008,0.00086863,0.010163,1.522,0.01468,0.028646,7.9279e-07,0.64,0.57,0
0.028135,-0.0033117,0.033117,0.0008999,0.010205,0.00074126,0,0,0.059572,-0.024194,0,0.0038546,0,0,0,0.033135,0.0008824,0.010205,1.317,0.014741,0.028748,8.017e-07,0.65,0.57,0
0.028732,-0.0032638,0.033243,0.00088633,0.010239,0.00062848,0,0,0.059811,-0.024316,0,0.0032681,0,0,0,0.033256,0.00087371,0.010239,1.1121,0.014789,0.028862,8.1081e-07,0.66,0.57,0
0.029331,-0.0032194,0.033361,0.00085311,0.010264,0.00051856,0,0,0.060052,-0.024469,0,0.0026965,0,0,0,0.03337,0.00084446,0.010264,0.91358,0.014826,0.028987,8.2014e-07,0.67,0.57,0
0.029933,-0.0031789,0.033473,0.00080274,0.010283,0.00041397,0,0,0.060296,-0.024648,0,0.0021527,0,0,0,0.033479,0.00079715,0.010283,0.72588,0.014853,0.029122,8.2962e-07,0.68,0.57,0
0.030537,-0.0031422,0.033579,0.00073793,0.010295,0.00031651,0,0,0.060538,-0.024849,0,0.0016459,0,0,0,0.033582,0.00073458,0.010295,0.55224,0.014871,0.029263,8.3918e-07,0.69,0.57,0
0.031143,-0.0031092,0.033678,0.00066141,0.010302,0.00022734,0,0,0.060778,-0.025065,0,0.0011822,0,0,0,0.03368,0.0006596,0.010302,0.39465,0.01488,0.029409,8.4872e-07,0.7,0.57,0
0.031752,-0.0030799,0.03377,0.00057582,0.010304,0.00014713,0,0,0.061013,-0.025293,0,0.0007651,0,0,0,0.033771,0.00057496,0.010304,0.25413,0.014883,0.029558,8.5814e-07,0.71,0.57,0
0.032364,-0.0030539,0.033856,0.00048359,0.010302,7.6142e-05,0,0,0.061241,-0.025528,0,0.00039594,0,0,0,0.033857,0.00048325,0.010302,0.13091,0.014881,0.029707,8.6733e-07,0.72,0.57,0
0.032977,-0.0030312,0.033935,0.00038692,0.010297,1.4304e-05,0,0,0.061461,-0.025765,0,7.4379e-05,0,0,0,0.033935,0.00038678,0.010297,0.024611,0.014873,0.029854,8.7622e-07,0.73,0.57,0
0.033593,-0.0030113,0.034008,0.00028774,0.010289,-3.8685e-05,0,0,0.06167,-0.026002,0,-0.00020116,0,0,0,0.034008,0.00028759,0.010289,-0.065561,0.014861,0.029998,8.8472e-07,0.74,0.57,0
0.034211,-0.0029941,0.034074,0.00018768,0.010278,-8.3295e-05,0,0,0.061868,-0.026236,0,-0.00043313,0,0,0,0.034074,0.00018739,0.010278,-0.14068,0.014847,0.030136,8.9278e-07,0.75,0.57,0
0.03483,-0.0029794,0.034134,8.8143e-05,0.010267,-0.00012011,0,0,0.062054,-0.026464,0,-0.00062457,0,0,0,0.034134,8.7656e-05,0.010267,-0.202,0.014829,0.030269,9.0036e-07,0.76,0.57,0
0.035452,-0.0029668,0.034187,-9.7403e-06,0.010253,-0.00014977,0,0,0.062228,-0.026684,0,-0.00077883,0,0,0,0.034188,-1.0443e-05,0.010253,-0.25082,0.01481,0.030395,9.0742e-07,0.77,0.57,0
0.036075,-0.0029561,0.034235,-0.00010505,0.010239,-0.00017296,0,0,0.062389,-0.026894,0,-0.00089941,0,0,0,0.034236,-0.00010596,0.010239,-0.28848,0.01479,0.030514,9.1396e-07,0.78,0.57,0
0.036699,-0.0029471,0.034277,-0.00019708,0.010224,-0.00019035,0,0,0.062538,-0.027095,0,-0.0009898,0,0,0,0.034278,-0.00019816,0.010224,-0.31627,0.014768,0.030626,9.1997e-07,0.79,0.57,0
0.037326,-0.0029396,0.034314,-0.00028527,0.010209,-0.00020258,0,0,0.062674,-0.027284,0,-0.0010534,0,0,0,0.034315,-0.00028647,0.010209,-0.33539,0.014746,0.030729,9.2545e-07,0.8,0.57,0
0.037953,-0.0029334,0.034346,-0.00036922,0.010193,-0.00021027,0,0,0.062799,-0.027462,0,-0.0010934,0,0,0,0.034348,-0.0003705,0.010193,-0.34698,0.014723,0.030825,9.3043e-07,0.81,0.57,0
0.038582,-0.0029283,0.034374,-0.00044864,0.010178,-0.00021401,0,0,0.062911,-0.027629,0,-0.0011128,0,0,0,0.034376,-0.00044997,0.010178,-0.35206,0.014701,0.030914,9.3492e-07,0.82,0.57,0
0.039211,-0.0029242,0.034398,-0.00052336,0.010162,-0.00021431,0,0,0.063013,-0.027783,0,-0.0011144,0,0,0,0.034399,-0.00052468,0.010162,-0.35158,0.014679,0.030995,9.3895e-07,0.83,0.57,0
0.039842,-0.0029209,0.034418,-0.00059326,0.010148,-0.00021167,0,0,0.063104,-0.027926,0,-0.0011007,0,0,0,0.03442,-0.00059455,0.010148,-0.34636,0.014658,0.031069,9.4255e-07,0.84,0.57,0
0.040473,-0.0029183,0.034435,-0.00065831,0.010133,-0.0002065,0,0,0.063186,-0.028058,0,-0.0010738,0,0,0,0.034437,-0.00065953,0.010133,-0.33712,0.014637,0.031136,9.4574e-07,0.85,0.57,0
0.041106,-0.0029162,0.03445,-0.00071852,0.010119,-0.0001992,0,0,0.063259,-0.028178,0,-0.0010358,0,0,0,0.034451,-0.00071966,0.010119,-0.32452,0.014617,0.031197,9.4855e-07,0.86,0.57,0
0.041738,-0.0029147,0.034461,-0.00077394,0.010106,-0.0001901,0,0,0.063323,-0.028288,0,-0.00098854,0,0,0,0.034462,-0.00077497,0.010106,-0.30912,0.014598,0.031251,9.5102e-07,0.87,0.57,0
0.042372,-0.0029136,0.034471,-0.00082465,0.010094,-0.00017951,0,0,0.06338,-0.028388,0,-0.00093343,0,0,0,0.034471,-0.00082556,0.010094,-0.29139,0.01458,0.0313,9.5318e-07,0.88,0.57,0
0.043006,-0.0029128,0.034478,-0.00087073,0.010082,-0.00016767,0,0,0.063429,-0.028478,0,-0.00087186,0,0,0,0.034479,-0.00087153,0.010082,-0.27176,0.014563,0.031344,9.5505e-07,0.89,0.57,0
0.043641,-0.0029122,0.034484,-0.0009123,0.010072,-0.0001548,0,0,0.063472,-0.028558,0,-0.00080497,0,0,0,0.034485,-0.00091298,0.010072,-0.25058,0.014548,0.031382,9.5666e-07,0.9,0.57,0
0.044275,-0.0029119,0.034489,-0.00094948,0.010062,-0.00014111,0,0,0.06351,-0.028629,0,-0.00073375,0,0,0,0.034489,-0.00095004,0.010062,-0.22814,0.014534,0.031416,9.5805e-07,0.91,0.57,0
0.044911,-0.0029117,0.034492,-0.00098237,0.010053,-0.00012674,0,0,0.063542,-0.028692,0,-0.00065904,0,0,0,0.034492,-0.00098282,0.010053,-0.20471,0.014521,0.031445,9.5922e-07,0.92,0.57,0
0.045546,-0.0029116,0.034495,-0.0010111,0.010045,-0.00011184,0,0,0.063569,-0.028746,0,-0.00058155,0,0,0,0.034495,-0.0010114,0.010045,-0.18048,0.014509,0.03147,9.602e-07,0.93,0.57,0
0.046182,-0.0029116,0.034496,-0.0010358,0.010038,-9.6509e-05,0,0,0.063591,-0.028792,0,-0.00050185,0,0,0,0.034497,-0.001036,0.010038,-0.15563,0.0145,0.031491,9.6101e-07,0.94,0.57,0
0.046818,-0.0029117,0.034498,-0.0010564,0.010032,-8.0855e-05,0,0,0.06361,-0.028831,0,-0.00042044,0,0,0,0.034498,-0.0010566,0.010032,-0.1303,0.014491,0.031509,9.6167e-07,0.95,0.57,0
0.047454,-0.0029117,0.034499,-0.0010732,0.010028,-6.495e-05,0,0,0.063625,-0.028862,0,-0.00033774,0,0,0,0.034499,-0.0010734,0.010028,-0.10462,0.014484,0.031523,9.6219e-07,0.96,0.57,0
0.048091,-0.0029118,0.034499,-0.0010862,0.010024,-4.886e-05,0,0,0.063636,-0.028886,0,-0.00025407,0,0,0,0.034499,-0.0010863,0.010024,-0.078673,0.014479,0.031534,9.6258e-07,0.97,0.57,0
0.048727,-0.0029119,0.034499,-0.0010955,0.010021,-3.2642e-05,0,0,0.063643,-0.028903,0,-0.00016974,0,0,0,0.0345,-0.0010955,0.010021,-0.052544,0.014475,0.031542,9.6286e-07,0.98,0.57,0
0.049364,-0.0029119,0.0345,-0.001101,0.01002,-1.641e-05,0,0,0.063648,-0.028914,0,-8.5334e-05,0,0,0,0.0345,-0.001101,0.01002,-0.026412,0.014473,0.031546,9.6302e-07,0.99,0.57,0
0.049682,-0.0029119,0.0345,-0.0011029,0.010019,-8.3148e-06,0,0,0.06365,-0.028917,0,-4.3237e-05,0,0,0,0.0345,-0.0011029,0.010019,-0.013381,0.014472,0.031548,9.6307e-07,1,0.57,0
0.00023625,-3.0554e-05,0.031785,0.013407,0.013558,-0.0011724,0,0,0.047391,-0.0003911,0,-0.0060966,0,0,0,0.03186,0.013332,0.013558,-3.6369,0.019583,0.018417,3.2064e-07,0,0.58,0
0.00047391,-5.9791e-05,0.031814,0.013206,0.013506,-0.0011585,0,0,0.047601,-0.00078072,0,-0.0060244,0,0,0,0.031887,0.013133,0.013506,-3.5519,0.019509,0.018571,3.285e-07,0.01,0.58,0
0.00095203,-0.0001157,0.031921,0.012824,0.013424,-0.0011216,0,0,0.048094,-0.001559,0,-0.0058324,0,0,0,0.031988,0.012757,0.013424,-3.3537,0.01939,0.018907,3.4571e-07,0.02,0.58,0
0.0014358,-0.00016661,0.032079,0.012463,0.013363,-0.0010794,0,0,0.048662,-0.0023384,0,-0.0056127,0,0,0,0.032139,0.012403,0.013363,-3.1438,0.019301,0.019274,3.6475e-07,0.03,0.58,0
0.0019253,-0.0002127,0.03224,0.012101,0.013302,-0.0010445,0,0,0.049238,-0.0031232,0,-0.0054316,0,0,0,0.032295,0.012046,0.013302,-2.9646,0.019215,0.019652,3.8447e-07,0.04,0.58,0
0.0024206,-0.00025413,0.032407,0.011738,0.013243,-0.001017,0,0,0.049825,-0.0039145,0,-0.0052886,0,0,0,0.032457,0.011687,0.013243,-2.8136,0.019129,0.020038,4.0492e-07,0.05,0.58,0
0.0029218,-0.00029098,0.032578,0.011374,0.013186,-0.00099683,0,0,0.050421,-0.0047105,0,-0.0051835,0,0,0,0.032626,0.011326,0.013186,-2.6889,0.019046,0.020434,4.2608e-07,0.06,0.58,0
0.003429,-0.00032324,0.032754,0.011011,0.01313,-0.00098351,0,0,0.051023,-0.0055077,0,-0.0051142,0,0,0,0.032799,0.010966,0.01313,-2.588,0.018965,0.020836,4.4786e-07,0.07,0.58,0
0.0039422,-0.00035081,0.032933,0.010652,0.013076,-0.00097564,0,0,0.051631,-0.0063019,0,-0.0050733,0,0,0,0.032977,0.010608,0.013076,-2.5058,0.018887,0.021243,4.7016e-07,0.08,0.58,0
0.0044616,-0.00037341,0.033117,0.010297,0.013024,-0.00097039,0,0,0.052241,-0.0070908,0,-0.005046,0,0,0,0.033159,0.010255,0.013024,-2.4342,0.018812,0.021653,4.9291e-07,0.09,0.58,0
0.004987,-0.0003905,0.033303,0.009945,0.012974,-0.00096349,0,0,0.052855,-0.0078765,0,-0.0050101,0,0,0,0.033344,0.0099045,0.012974,-2.362,0.018741,0.022066,5.1611e-07,0.1,0.58,0
0.0055187,-0.00040122,0.03349,0.0095901,0.012924,-0.00094928,0,0,0.053471,-0.008668,0,-0.0049363,0,0,0,0.033528,0.0095516,0.012924,-2.2755,0.018668,0.022482,5.3976e-07,0.11,0.58,0
0.0060565,-0.00040427,0.033667,0.009223,0.012867,-0.00091693,0,0,0.054079,-0.0094742,0,-0.004768,0,0,0,0.033702,0.0091877,0.012867,-2.1503,0.018585,0.022898,5.635e-07,0.12,0.58,0
0.0066003,-0.00039735,0.033839,0.0088346,0.012802,-0.00084326,0,0,0.054697,-0.010316,0,-0.0043849,0,0,0,0.033869,0.0088052,0.012802,-1.9348,0.018492,0.023324,5.8783e-07,0.13,0.58,0
0.0071504,-0.00037709,0.034045,0.0083189,0.012709,-0.00072907,0,0,0.055473,-0.011414,0,-0.0037912,0,0,0,0.034067,0.0082968,0.012709,-1.6278,0.018358,0.023873,6.1919e-07,0.14,0.58,0
0.0077097,-0.00034346,0.034634,0.0077469,0.012714,-0.00063618,0,0,0.055801,-0.012636,0,-0.0033195,0,0,0,0.034651,0.0077296,0.012714,-1.3716,0.018365,0.024809,6.8778e-07,0.15,0.58,0
0.0082707,-0.00031239,0.035334,0.007275,0.012783,-0.00043621,0,0,0.05219,-0.012508,0,-0.0021862,0,0,0,0.035366,0.0072429,0.012783,-0.83116,0.018464,0.025811,7.8729e-07,0.16,0.58,0
0.0087641,-0.00031392,0.035277,0.0070651,0.012703,0.00017061,0,0,0.042851,-0.010343,0,0.00036964,0,0,0,0.035334,0.0070083,0.012703,0.52571,0.018348,0.025967,8.166e-07,0.17,0.58,0
0.0091334,-0.00036004,0.035322,0.00734,0.012799,0.000889,0,0,0.033895,-0.008096,0,0.0025174,0,0,0,0.03538,0.007282,0.012799,1.9002,0.018487,0.025794,7.8479e-07,0.18,0.58,0
0.0094388,-0.00043327,0.036137,0.0076423,0.013134,0.0011912,0,0,0.030566,-0.0073139,0,0.0031246,0,0,0,0.036188,0.0075914,0.013134,2.3812,0.018971,0.026268,8.0101e-07,0.19,0.58,0
0.0097421,-0.00051457,0.03666,0.0075537,0.013264,0.0012265,0,0,0.030415,-0.0074235,0,0.0031889,0,0,0,0.036712,0.0075018,0.013264,2.4085,0.019159,0.026798,8.3666e-07,0.2,0.58,0
0.010047,-0.0005985,0.036681,0.0073087,0.013197,0.00124,0,0,0.030529,-0.0076546,0,0.003224,0,0,0,0.036733,0.0072564,0.013197,2.413,0.019062,0.027001,8.4857e-07,0.21,0.58,0
0.010353,-0.00068563,0.036638,0.0070115,0.013095,0.0012189,0,0,0.030606,-0.0079084,0,0.0031691,0,0,0,0.036688,0.0069614,0.013095,2.352,0.018915,0.027184,8.574e-07,0.22,0.58,0
0.010659,-0.00077655,0.036577,0.0066239,0.01296,0.0011868,0,0,0.030701,-0.0082372,0,0.0030857,0,0,0,0.036624,0.0065769,0.01296,2.2654,0.01872,0.027419,8.6834e-07,0.23,0.58,0
0.010967,-0.00087104,0.036503,0.0062006,0.012811,0.0011688,0,0,0.030799,-0.0085936,0,0.0030387,0,0,0,0.036548,0.0061555,0.012811,2.2051,0.018505,0.027672,8.7972e-07,0.24,0.58,0
0.011275,-0.00096875,0.036417,0.0057851,0.012661,0.0011512,0,0,0.030883,-0.0089382,0,0.0029931,0,0,0,0.03646,0.0057418,0.012661,2.1487,0.018288,0.02791,8.8955e-07,0.25,0.58,0
0.011584,-0.0010696,0.036313,0.0053534,0.0125,0.0011185,0,0,0.030957,-0.0092904,0,0.0029081,0,0,0,0.036354,0.0053129,0.0125,2.0662,0.018055,0.028144,8.9814e-07,0.26,0.58,0
0.011894,-0.0011737,0.036197,0.0048804,0.012323,0.0010733,0,0,0.031036,-0.0096757,0,0.0027905,0,0,0,0.036234,0.0048434,0.012323,1.9606,0.0178,0.0284,9.0698e-07,0.27,0.58,0
0.012205,-0.001281,0.036078,0.0043622,0.012132,0.0010264,0,0,0.03113,-0.010101,0,0.0026687,0,0,0,0.036111,0.0043288,0.012132,1.8518,0.017524,0.028689,9.1687e-07,0.28,0.58,0
0.012517,-0.0013912,0.035956,0.0038003,0.011927,0.00098903,0,0,0.031238,-0.010564,0,0.0025715,0,0,0,0.035986,0.0037697,0.011927,1.76,0.017228,0.029012,9.2775e-07,0.29,0.58,0
0.01283,-0.001504,0.035827,0.0031972,0.011707,0.0009729,0,0,0.031355,-0.011063,0,0.0025295,0,0,0,0.035856,0.0031679,0.011707,1.7059,0.01691,0.029365,9.3915e-07,0.3,0.58,0
0.013144,-0.0016184,0.035684,0.0025634,0.011474,0.00099082,0,0,0.031472,-0.011584,0,0.0025761,0,0,0,0.035714,0.0025334,0.011474,1.7109,0.016574,0.029736,9.5003e-07,0.31,0.58,0
0.013459,-0.0017335,0.035517,0.0019228,0.011232,0.0010522,0,0,0.03157,-0.012102,0,0.0027358,0,0,0,0.03555,0.0018893,0.011232,1.7903,0.016224,0.030098,9.5871e-07,0.32,0.58,0
0.013775,-0.0018481,0.035314,0.001307,0.010986,0.0011577,0,0,0.031626,-0.012583,0,0.00301,0,0,0,0.035354,0.0012667,0.010986,1.9449,0.015869,0.030416,9.6311e-07,0.33,0.58,0
0.014092,-0.0019613,0.035063,0.00074524,0.010742,0.0012971,0,0,0.031616,-0.012996,0,0.0033725,0,0,0,0.035113,0.00069495,0.010742,2.1585,0.015517,0.030656,9.6138e-07,0.34,0.58,0
0.014408,-0.0020722,0.034754,0.00025569,0.010503,0.0014521,0,0,0.031527,-0.013321,0,0.0037755,0,0,0,0.034817,0.00019277,0.010503,2.4032,0.015171,0.030792,9.5234e-07,0.35,0.58,0
0.014722,-0.0021804,0.034383,-0.00015917,0.010267,0.0016011,0,0,0.031351,-0.013554,0,0.0041629,0,0,0,0.03446,-0.00023576,0.010267,2.6457,0.01483,0.030817,9.3569e-07,0.36,0.58,0
0.015035,-0.0022861,0.033947,-0.00051172,0.010031,0.0017239,0,0,0.031092,-0.013705,0,0.0044822,0,0,0,0.034037,-0.00060099,0.010031,2.8549,0.014489,0.030734,9.1185e-07,0.37,0.58,0
0.015344,-0.0023896,0.033446,-0.00082523,0.0097862,0.0018041,0,0,0.030758,-0.013795,0,0.0046907,0,0,0,0.033545,-0.00092407,0.0097862,3.0039,0.014136,0.030556,8.8163e-07,0.38,0.58,0
0.01565,-0.0024916,0.032878,-0.0011303,0.0095242,0.0018287,0,0,0.03036,-0.013851,0,0.0047547,0,0,0,0.032981,-0.0012337,0.0095242,3.0693,0.013757,0.030304,8.4605e-07,0.39,0.58,0
0.015951,-0.0025928,0.032247,-0.0014654,0.0092346,0.0017868,0,0,0.029917,-0.01391,0,0.0046457,0,0,0,0.032349,-0.0015667,0.0092346,3.028,0.013339,0.03001,8.0667e-07,0.4,0.58,0
0.016248,-0.002694,0.031579,-0.0018841,0.0089085,0.0016768,0,0,0.029472,-0.01403,0,0.0043598,0,0,0,0.031671,-0.0019762,0.0089085,2.8688,0.012868,0.029739,7.6666e-07,0.41,0.58,0
0.016541,-0.002795,0.030905,-0.0024778,0.0085281,0.0015367,0,0,0.02909,-0.014308,0,0.0039954,0,0,0,0.030984,-0.0025571,0.0085281,2.6427,0.012318,0.029599,7.3005e-07,0.42,0.58,0
0.01683,-0.0028931,0.030177,-0.0032859,0.0080673,0.001455,0,0,0.028742,-0.014759,0,0.0037831,0,0,0,0.030248,-0.0033574,0.0080673,2.4994,0.011653,0.029597,6.9432e-07,0.43,0.58,0
0.017116,-0.002983,0.029154,-0.0039921,0.0075485,0.0013982,0,0,0.028654,-0.015296,0,0.0037471,0,0,0,0.02922,-0.0040585,0.0075485,2.4347,0.010903,0.029257,6.4524e-07,0.44,0.58,0
0.017401,-0.0030672,0.028134,-0.0042054,0.0071785,0.0012908,0,0,0.031324,-0.016638,0,0.0037343,0,0,0,0.0282,-0.0042718,0.0071785,2.2591,0.010369,0.02854,5.9878e-07,0.45,0.58,0
0.01774,-0.0031687,0.027967,-0.003694,0.007282,0.0011289,0,0,0.038946,-0.019795,0,0.0038113,0,0,0,0.02803,-0.003757,0.007282,1.9422,0.010518,0.027982,5.9092e-07,0.46,0.58,0
0.018185,-0.0033135,0.028152,-0.0025319,0.007686,0.0007912,0,0,0.047152,-0.022978,0,0.0032921,0,0,0,0.028186,-0.0025663,0.007686,1.3998,0.011102,0.027138,5.78e-07,0.47,0.58,0
0.018692,-0.0034902,0.027883,-0.0013379,0.0079634,0.00038969,0,0,0.050644,-0.023578,0,0.0019338,0,0,0,0.027891,-0.0013458,0.0079634,0.74419,0.011503,0.025872,5.2709e-07,0.48,0.58,0
0.019202,-0.0036579,0.027709,-0.00057004,0.0081418,0.00023602,0,0,0.050875,-0.022651,0,0.0012273,0,0,0,0.027712,-0.00057323,0.0081418,0.46784,0.01176,0.025091,4.9582e-07,0.49,0.58,0
0.01971,-0.0037917,0.027924,-0.00020998,0.0083143,0.00029411,0,0,0.050986,-0.022163,0,0.0015293,0,0,0,0.02793,-0.00021541,0.0083143,0.57983,0.01201,0.024997,5.0102e-07,0.5,0.58,0
0.020222,-0.0038894,0.028317,-2.4706e-05,0.0084878,0.00037283,0,0,0.051557,-0.022132,0,0.0019387,0,0,0,0.028326,-3.33e-05,0.0084878,0.73005,0.01226,0.025203,5.1883e-07,0.51,0.58,0
0.020741,-0.0039567,0.028804,7.0901e-05,0.0086624,0.00042951,0,0,0.052368,-0.022338,0,0.0022334,0,0,0,0.028815,5.9531e-05,0.0086624,0.83298,0.012512,0.025564,5.4376e-07,0.52,0.58,0
0.021269,-0.0039984,0.029313,4.7539e-05,0.0088081,0.0005131,0,0,0.053312,-0.022777,0,0.0026681,0,0,0,0.029327,3.3222e-05,0.0088081,0.98489,0.012723,0.02604,5.7324e-07,0.53,0.58,0
0.021807,-0.0040174,0.029832,4.4386e-05,0.0089628,0.00063763,0,0,0.054259,-0.023188,0,0.0033157,0,0,0,0.02985,2.6156e-05,0.0089628,1.2121,0.012946,0.02651,6.0414e-07,0.54,0.58,0
0.022354,-0.004016,0.030329,0.00012298,0.0091356,0.00076027,0,0,0.055103,-0.023433,0,0.0039534,0,0,0,0.030352,0.00010023,0.0091356,1.4312,0.013196,0.026897,6.3313e-07,0.55,0.58,0
0.022909,-0.0039978,0.030775,0.0002221,0.0092991,0.00085373,0,0,0.055837,-0.0236,0,0.0044394,0,0,0,0.030802,0.00019535,0.0092991,1.5923,0.013432,0.027221,6.5932e-07,0.56,0.58,0
0.023471,-0.0039667,0.031172,0.00031661,0.0094465,0.00092318,0,0,0.056486,-0.023738,0,0.0048005,0,0,0,0.031202,0.00028671,0.0094465,1.7073,0.013645,0.027504,6.8304e-07,0.57,0.58,0
0.024039,-0.0039257,0.031524,0.00042422,0.0095846,0.00097355,0,0,0.057043,-0.023817,0,0.0050625,0,0,0,0.031556,0.00039209,0.0095846,1.788,0.013844,0.027735,7.0396e-07,0.58,0.58,0
0.024612,-0.0038772,0.031831,0.0005496,0.0097142,0.00099813,0,0,0.057504,-0.023828,0,0.0051903,0,0,0,0.031864,0.0005166,0.0097142,1.8235,0.014032,0.02791,7.2161e-07,0.59,0.58,0
0.025189,-0.0038238,0.032095,0.00067867,0.0098321,0.00099064,0,0,0.057883,-0.023799,0,0.0051514,0,0,0,0.032127,0.00064658,0.0098321,1.8027,0.014202,0.02804,7.3629e-07,0.6,0.58,0
0.025769,-0.0037678,0.032324,0.00079583,0.009936,0.00095143,0,0,0.058209,-0.023764,0,0.0049474,0,0,0,0.032354,0.00076642,0.009936,1.7256,0.014352,0.028146,7.4889e-07,0.61,0.58,0
0.026353,-0.0037113,0.032528,0.0008907,0.010025,0.00088595,0,0,0.058505,-0.02375,0,0.0046069,0,0,0,0.032553,0.00086527,0.010025,1.6018,0.014481,0.028245,7.6026e-07,0.62,0.58,0
0.02694,-0.0036558,0.032712,0.00095832,0.010101,0.0008014,0,0,0.058788,-0.023771,0,0.0041673,0,0,0,0.032733,0.00093751,0.010101,1.4441,0.01459,0.028347,7.7105e-07,0.63,0.58,0
0.027529,-0.0036025,0.032881,0.00099729,0.010164,0.00070466,0,0,0.059066,-0.023832,0,0.0036642,0,0,0,0.032897,0.00098116,0.010164,1.265,0.014681,0.028459,7.8165e-07,0.64,0.58,0
0.028121,-0.0035522,0.033038,0.0010084,0.010214,0.00060168,0,0,0.059343,-0.023935,0,0.0031287,0,0,0,0.03305,0.00099656,0.010214,1.0755,0.014754,0.028582,7.9229e-07,0.65,0.58,0
0.028716,-0.0035056,0.033185,0.00099379,0.010254,0.00049725,0,0,0.059621,-0.024076,0,0.0025857,0,0,0,0.033193,0.00098564,0.010254,0.88465,0.014811,0.028718,8.0304e-07,0.66,0.58,0
0.029313,-0.0034629,0.033322,0.00095649,0.010284,0.00039513,0,0,0.0599,-0.02425,0,0.0020547,0,0,0,0.033327,0.00095124,0.010284,0.69937,0.014854,0.028864,8.1391e-07,0.67,0.58,0
0.029914,-0.0034243,0.03345,0.00089981,0.010305,0.00029807,0,0,0.060177,-0.024453,0,0.00155,0,0,0,0.033453,0.00089671,0.010305,0.52475,0.014885,0.02902,8.2483e-07,0.68,0.58,0
0.030517,-0.0033897,0.033569,0.00082719,0.010319,0.00020805,0,0,0.060451,-0.024679,0,0.0010818,0,0,0,0.033571,0.00082555,0.010319,0.36423,0.014905,0.029181,8.3573e-07,0.69,0.58,0
0.031123,-0.0033591,0.033681,0.00074194,0.010327,0.0001263,0,0,0.06072,-0.02492,0,0.00065676,0,0,0,0.033681,0.00074119,0.010327,0.21992,0.014916,0.029346,8.4649e-07,0.7,0.58,0
0.031731,-0.0033321,0.033783,0.00064718,0.010329,5.3521e-05,0,0,0.060981,-0.025173,0,0.00027831,0,0,0,0.033784,0.00064688,0.010329,0.09278,0.01492,0.029512,8.5701e-07,0.71,0.58,0
0.032342,-0.0033087,0.033878,0.00054574,0.010327,-1.0056e-05,0,0,0.061232,-0.025431,0,-5.229e-05,0,0,0,0.033878,0.00054556,0.010327,-0.017054,0.014917,0.029676,8.6719e-07,0.72,0.58,0
0.032956,-0.0032884,0.033964,0.00044009,0.010321,-6.4546e-05,0,0,0.061471,-0.025691,0,-0.00033564,0,0,0,0.033964,0.00043983,0.010321,-0.1101,0.014908,0.029837,8.7694e-07,0.73,0.58,0
0.033572,-0.003271,0.034043,0.00033238,0.010312,-0.00011032,0,0,0.061698,-0.025948,0,-0.00057367,0,0,0,0.034043,0.00033191,0.010312,-0.18731,0.014896,0.029993,8.8619e-07,0.74,0.58,0
0.03419,-0.0032563,0.034113,0.00022437,0.010301,-0.00014792,0,0,0.061911,-0.0262,0,-0.00076918,0,0,0,0.034114,0.00022364,0.010301,-0.24991,0.01488,0.030143,8.9488e-07,0.75,0.58,0
0.03481,-0.0032439,0.034177,0.00011754,0.010288,-0.00017799,0,0,0.06211,-0.026444,0,-0.00092555,0,0,0,0.034178,0.00011655,0.010288,-0.29927,0.014861,0.030285,9.0298e-07,0.76,0.58,0
0.035432,-0.0032335,0.034233,1.3059e-05,0.010274,-0.00020124,0,0,0.062294,-0.026678,0,-0.0010464,0,0,0,0.034234,1.183e-05,0.010274,-0.33681,0.01484,0.030419,9.1048e-07,0.77,0.58,0
0.036056,-0.003225,0.034283,-8.8156e-05,0.010258,-0.00021837,0,0,0.062463,-0.026901,0,-0.0011355,0,0,0,0.034284,-8.9577e-05,0.010258,-0.36392,0.014818,0.030544,9.1736e-07,0.78,0.58,0
0.036681,-0.0032181,0.034326,-0.00018541,0.010242,-0.00023011,0,0,0.062618,-0.027112,0,-0.0011965,0,0,0,0.034328,-0.00018697,0.010242,-0.38193,0.014794,0.030661,9.2363e-07,0.79,0.58,0
0.037308,-0.0032125,0.034364,-0.00027818,0.010226,-0.00023711,0,0,0.062759,-0.02731,0,-0.001233,0,0,0,0.034366,-0.00027982,0.010226,-0.39208,0.01477,0.030768,9.2932e-07,0.8,0.58,0
0.037936,-0.0032081,0.034396,-0.00036611,0.010209,-0.00024001,0,0,0.062887,-0.027496,0,-0.001248,0,0,0,0.034398,-0.00036778,0.010209,-0.39552,0.014746,0.030868,9.3444e-07,0.81,0.58,0
0.038566,-0.0032047,0.034424,-0.00044897,0.010193,-0.00023938,0,0,0.063002,-0.027668,0,-0.0012448,0,0,0,0.034426,-0.00045062,0.010193,-0.39325,0.014723,0.030959,9.3902e-07,0.82,0.58,0
0.039197,-0.0032022,0.034448,-0.00052662,0.010176,-0.00023575,0,0,0.063105,-0.027828,0,-0.0012259,0,0,0,0.034449,-0.00052822,0.010176,-0.38618,0.014699,0.031042,9.431e-07,0.83,0.58,0
0.039828,-0.0032003,0.034467,-0.00059902,0.01016,-0.00022959,0,0,0.063197,-0.027975,0,-0.0011939,0,0,0,0.034469,-0.00060053,0.01016,-0.37511,0.014676,0.031117,9.4672e-07,0.84,0.58,0
0.04046,-0.0031991,0.034483,-0.00066617,0.010145,-0.00022132,0,0,0.063279,-0.028109,0,-0.0011508,0,0,0,0.034485,-0.00066757,0.010145,-0.36074,0.014654,0.031185,9.499e-07,0.85,0.58,0
0.041094,-0.0031983,0.034496,-0.00072813,0.01013,-0.00021128,0,0,0.063351,-0.028232,0,-0.0010987,0,0,0,0.034498,-0.0007294,0.01013,-0.34366,0.014633,0.031246,9.5268e-07,0.86,0.58,0
0.041727,-0.0031979,0.034507,-0.00078499,0.010117,-0.00019982,0,0,0.063415,-0.028344,0,-0.001039,0,0,0,0.034508,-0.00078613,0.010117,-0.32439,0.014613,0.031301,9.5511e-07,0.87,0.58,0
0.042362,-0.0031977,0.034515,-0.00083688,0.010104,-0.00018718,0,0,0.063471,-0.028445,0,-0.00097336,0,0,0,0.034516,-0.00083788,0.010104,-0.30337,0.014594,0.03135,9.5721e-07,0.88,0.58,0
0.042997,-0.0031979,0.034522,-0.00088393,0.010091,-0.00017362,0,0,0.063519,-0.028536,0,-0.00090282,0,0,0,0.034523,-0.00088478,0.010091,-0.28096,0.014576,0.031393,9.5902e-07,0.89,0.58,0
0.043632,-0.0031981,0.034527,-0.00092628,0.01008,-0.00015932,0,0,0.063561,-0.028616,0,-0.00082845,0,0,0,0.034527,-0.00092699,0.01008,-0.25748,0.01456,0.031431,9.6057e-07,0.9,0.58,0
0.044268,-0.0031985,0.03453,-0.00096406,0.01007,-0.00014444,0,0,0.063597,-0.028688,0,-0.0007511,0,0,0,0.034531,-0.00096465,0.01007,-0.23317,0.014545,0.031464,9.6188e-07,0.91,0.58,0
0.044904,-0.0031989,0.034533,-0.00099744,0.010061,-0.00012913,0,0,0.063627,-0.028751,0,-0.00067145,0,0,0,0.034533,-0.00099791,0.010061,-0.20824,0.014532,0.031493,9.6298e-07,0.92,0.58,0
0.045541,-0.0031994,0.034534,-0.0010265,0.010052,-0.00011348,0,0,0.063653,-0.028805,0,-0.00059009,0,0,0,0.034535,-0.0010269,0.010052,-0.18285,0.01452,0.031518,9.639e-07,0.93,0.58,0
0.046177,-0.0031999,0.034535,-0.0010515,0.010045,-9.7589e-05,0,0,0.063674,-0.028851,0,-0.00050746,0,0,0,0.034535,-0.0010517,0.010045,-0.15713,0.01451,0.031539,9.6466e-07,0.94,0.58,0
0.046814,-0.0032003,0.034536,-0.0010724,0.010039,-8.1522e-05,0,0,0.063692,-0.02889,0,-0.00042392,0,0,0,0.034536,-0.0010726,0.010039,-0.13118,0.014501,0.031556,9.6526e-07,0.95,0.58,0
0.047451,-0.0032007,0.034536,-0.0010893,0.010034,-6.5333e-05,0,0,0.063705,-0.028921,0,-0.00033973,0,0,0,0.034536,-0.0010895,0.010034,-0.10508,0.014494,0.03157,9.6574e-07,0.96,0.58,0
0.048088,-0.003201,0.034536,-0.0011024,0.01003,-4.906e-05,0,0,0.063716,-0.028945,0,-0.00025511,0,0,0,0.034536,-0.0011025,0.01003,-0.078876,0.014488,0.03158,9.661e-07,0.97,0.58,0
0.048725,-0.0032012,0.034536,-0.0011118,0.010027,-3.2733e-05,0,0,0.063723,-0.028962,0,-0.00017021,0,0,0,0.034536,-0.0011118,0.010027,-0.052613,0.014484,0.031588,9.6635e-07,0.98,0.58,0
0.049363,-0.0032013,0.034536,-0.0011173,0.010026,-1.6606e-05,0,0,0.063727,-0.028972,0,-8.6351e-05,0,0,0,0.034536,-0.0011173,0.010026,-0.026687,0.014482,0.031592,9.6649e-07,0.99,0.58,0
0.049681,-0.0032014,0.034536,-0.0011192,0.010025,-8.6531e-06,0,0,0.063729,-0.028975,0,-4.4996e-05,0,0,0,0.034536,-0.0011192,0.010025,-0.013905,0.014481,0.031593,9.6654e-07,1,0.58,0
0.00023505,-3.4404e-05,0.031624,0.013346,0.013491,-0.001321,0,0,0.047146,-0.00037745,0,-0.0068691,0,0,0,0.03172,0.01325,0.013491,-4.1136,0.019487,0.018351,3.1718e-07,0,0.59,0
0.00047146,-6.7482e-05,0.031652,0.01315,0.013441,-0.0013078,0,0,0.047349,-0.00075485,0,-0.0068006,0,0,0,0.031745,0.013058,0.013441,-4.0263,0.019414,0.018499,3.2468e-07,0.01,0.59,0
0.00094698,-0.00013107,0.031754,0.012779,0.01336,-0.0012729,0,0,0.047824,-0.0015105,0,-0.0066188,0,0,0,0.031839,0.012693,0.01336,-3.8246,0.019297,0.018823,3.411e-07,0.02,0.59,0
0.0014279,-0.00018967,0.031902,0.012426,0.013298,-0.0012336,0,0,0.04837,-0.0022692,0,-0.0064147,0,0,0,0.031981,0.012347,0.013298,-3.6133,0.019209,0.019177,3.5924e-07,0.03,0.59,0
0.0019144,-0.00024351,0.032053,0.012071,0.013237,-0.0012024,0,0,0.048922,-0.0030326,0,-0.0062524,0,0,0,0.032126,0.011998,0.013237,-3.4346,0.01912,0.019539,3.7796e-07,0.04,0.59,0
0.0024064,-0.00029274,0.032206,0.011714,0.013176,-0.0011784,0,0,0.049477,-0.0038003,0,-0.0061278,0,0,0,0.032274,0.011646,0.013176,-3.2838,0.019032,0.019908,3.9722e-07,0.05,0.59,0
0.0029039,-0.00033741,0.032359,0.011357,0.013115,-0.0011612,0,0,0.050035,-0.0045702,0,-0.006038,0,0,0,0.032424,0.011293,0.013115,-3.1581,0.018944,0.020282,4.1696e-07,0.06,0.59,0
0.0034071,-0.0003775,0.032513,0.011001,0.013054,-0.0011498,0,0,0.050594,-0.0053395,0,-0.0059792,0,0,0,0.032575,0.010939,0.013054,-3.054,0.018856,0.020661,4.3708e-07,0.07,0.59,0
0.0039158,-0.00041286,0.032667,0.010645,0.012994,-0.0011431,0,0,0.05115,-0.0061059,0,-0.0059442,0,0,0,0.032727,0.010585,0.012994,-2.9667,0.018769,0.021041,4.5749e-07,0.08,0.59,0
0.0044301,-0.00044322,0.032819,0.010291,0.012933,-0.0011386,0,0,0.051703,-0.0068693,0,-0.0059207,0,0,0,0.032877,0.010233,0.012933,-2.8892,0.018681,0.021423,4.7811e-07,0.09,0.59,0
0.0049499,-0.00046805,0.032969,0.0099352,0.012871,-0.0011326,0,0,0.052254,-0.0076338,0,-0.0058895,0,0,0,0.033025,0.0098791,0.012871,-2.8117,0.018592,0.021805,4.9896e-07,0.1,0.59,0
0.0054752,-0.00048659,0.033118,0.0095726,0.012807,-0.0011192,0,0,0.052809,-0.0084103,0,-0.0058198,0,0,0,0.033172,0.0095189,0.012807,-2.719,0.018499,0.022193,5.2023e-07,0.11,0.59,0
0.0060061,-0.00049765,0.033277,0.0091941,0.012741,-0.0010883,0,0,0.053393,-0.0092231,0,-0.0056593,0,0,0,0.033327,0.0091443,0.012741,-2.5866,0.018404,0.022601,5.4277e-07,0.12,0.59,0
0.006543,-0.00049961,0.033479,0.0087737,0.012676,-0.0010314,0,0,0.054088,-0.010145,0,-0.0053633,0,0,0,0.033523,0.0087296,0.012676,-2.3922,0.018309,0.023076,5.6954e-07,0.13,0.59,0
0.0070878,-0.00049119,0.033759,0.0082429,0.012601,-0.00096153,0,0,0.055012,-0.01133,0,-0.0049999,0,0,0,0.033797,0.0082045,0.012601,-2.1625,0.018201,0.023704,6.058e-07,0.14,0.59,0
0.0076433,-0.00047302,0.034168,0.0076061,0.012532,-0.00092686,0,0,0.056253,-0.012808,0,-0.0048197,0,0,0,0.034204,0.0075702,0.012532,-2.0052,0.018102,0.024533,6.5593e-07,0.15,0.59,0
0.0082129,-0.00044763,0.035302,0.0070246,0.012698,-0.0010395,0,0,0.055264,-0.013643,0,-0.0050168,0,0,0,0.035351,0.0069757,0.012698,-2.0899,0.018342,0.025996,7.9155e-07,0.16,0.59,0
0.0087559,-0.00042996,0.036305,0.0067292,0.01291,-0.00082805,0,0,0.048625,-0.01254,0,-0.0038429,0,0,0,0.036368,0.0066662,0.01291,-1.5418,0.018648,0.027132,9.3287e-07,0.17,0.59,0
0.009199,-0.00044815,0.035886,0.0068254,0.012813,9.8881e-05,0,0,0.039349,-0.010165,0,-0.0004304,0,0,0,0.035939,0.0067717,0.012813,0.25096,0.018508,0.02667,8.979e-07,0.18,0.59,0
0.009546,-0.00050865,0.035809,0.0071091,0.012876,0.00093774,0,0,0.033222,-0.0084091,0,0.0023133,0,0,0,0.035857,0.0070616,0.012876,1.8101,0.018598,0.026374,8.325e-07,0.19,0.59,0
0.0098582,-0.00058978,0.036664,0.0073201,0.013195,0.0012414,0,0,0.031136,-0.0078081,0,0.0032102,0,0,0,0.036718,0.0072653,0.013195,2.3855,0.01906,0.026982,8.5614e-07,0.2,0.59,0
0.010167,-0.00067565,0.037064,0.0073392,0.013321,0.0012973,0,0,0.030866,-0.0077761,0,0.0033729,0,0,0,0.03712,0.0072825,0.013321,2.4937,0.019241,0.027324,8.7783e-07,0.21,0.59,0
0.010475,-0.00076515,0.037016,0.0070725,0.013227,0.0012631,0,0,0.030926,-0.0080002,0,0.003284,0,0,0,0.037069,0.0070193,0.013227,2.4113,0.019105,0.027478,8.8501e-07,0.22,0.59,0
0.010785,-0.00085944,0.036926,0.0066096,0.013061,0.0012488,0,0,0.031025,-0.0083865,0,0.003247,0,0,0,0.036978,0.0065582,0.013061,2.3541,0.018866,0.027746,8.973e-07,0.23,0.59,0
0.011096,-0.00095757,0.036844,0.006181,0.012908,0.0012695,0,0,0.031118,-0.0087446,0,0.0033008,0,0,0,0.036897,0.0061283,0.012908,2.3653,0.018644,0.028002,9.0884e-07,0.24,0.59,0
0.011408,-0.0010586,0.036736,0.005812,0.012764,0.0012742,0,0,0.031163,-0.009038,0,0.003313,0,0,0,0.036788,0.0057593,0.012764,2.3545,0.018437,0.028187,9.1522e-07,0.25,0.59,0
0.011719,-0.0011628,0.036598,0.0054036,0.012601,0.0012441,0,0,0.031197,-0.009356,0,0.0032346,0,0,0,0.036648,0.0053538,0.012601,2.2796,0.018201,0.028374,9.2026e-07,0.26,0.59,0
0.012031,-0.0012707,0.036457,0.0049294,0.012416,0.0011981,0,0,0.031254,-0.0097326,0,0.003115,0,0,0,0.036503,0.0048836,0.012416,2.1728,0.017934,0.028607,9.2717e-07,0.27,0.59,0
0.012344,-0.0013822,0.036319,0.0044034,0.012217,0.001155,0,0,0.031333,-0.010157,0,0.003003,0,0,0,0.036361,0.0043614,0.012217,2.0696,0.017647,0.028885,9.3597e-07,0.28,0.59,0
0.012658,-0.0014971,0.036181,0.0038302,0.012003,0.0011225,0,0,0.031431,-0.010625,0,0.0029185,0,0,0,0.03622,0.0037909,0.012003,1.9845,0.017338,0.029203,9.4609e-07,0.29,0.59,0
0.012973,-0.0016149,0.036036,0.0031993,0.011771,0.0011122,0,0,0.031545,-0.011143,0,0.0028918,0,0,0,0.036074,0.0031613,0.011771,1.937,0.017002,0.029564,9.5732e-07,0.3,0.59,0
0.013289,-0.0017347,0.035878,0.0025166,0.011518,0.0011441,0,0,0.031667,-0.011702,0,0.0029746,0,0,0,0.035917,0.0024771,0.011518,1.9602,0.016637,0.029961,9.6885e-07,0.31,0.59,0
0.013606,-0.0018552,0.035696,0.001817,0.011254,0.0012349,0,0,0.031775,-0.012268,0,0.0032108,0,0,0,0.035741,0.0017715,0.011254,2.0819,0.016256,0.030361,9.7861e-07,0.32,0.59,0
0.013924,-0.0019748,0.035476,0.0011493,0.010988,0.0013869,0,0,0.031835,-0.01279,0,0.0036059,0,0,0,0.035533,0.0010922,0.010988,2.3059,0.015871,0.030714,9.8373e-07,0.33,0.59,0
0.014243,-0.0020922,0.035204,0.00055608,0.010728,0.0015854,0,0,0.031818,-0.013223,0,0.0041221,0,0,0,0.035278,0.00048191,0.010728,2.6102,0.015496,0.030972,9.8175e-07,0.34,0.59,0
0.014561,-0.0022063,0.034869,6.1875e-05,0.010479,0.0018053,0,0,0.031707,-0.013543,0,0.0046937,0,0,0,0.034965,-3.3938e-05,0.010479,2.9568,0.015137,0.031105,9.7136e-07,0.35,0.59,0
0.014877,-0.0023167,0.034469,-0.00033272,0.010241,0.0020188,0,0,0.031497,-0.013746,0,0.005249,0,0,0,0.034589,-0.0004525,0.010241,3.305,0.014792,0.031106,9.5249e-07,0.36,0.59,0
0.015191,-0.0024237,0.034003,-0.00064829,0.010007,0.0022043,0,0,0.031196,-0.013851,0,0.0057312,0,0,0,0.034147,-0.00079166,0.010007,3.6217,0.014454,0.030984,9.2594e-07,0.37,0.59,0
0.015501,-0.0025277,0.033468,-0.000917,0.0097652,0.0023492,0,0,0.030813,-0.013887,0,0.0061079,0,0,0,0.033632,-0.0010813,0.0097652,3.8867,0.014105,0.03076,8.9263e-07,0.38,0.59,0
0.015807,-0.0026299,0.03285,-0.0011748,0.0095025,0.0024475,0,0,0.030352,-0.01388,0,0.0063636,0,0,0,0.033031,-0.0013558,0.0095025,4.0893,0.013726,0.030446,8.5295e-07,0.39,0.59,0
0.016108,-0.0027312,0.032125,-0.0014623,0.0091988,0.0024937,0,0,0.029804,-0.013859,0,0.0064836,0,0,0,0.032317,-0.0016547,0.0091988,4.2184,0.013287,0.030053,8.0656e-07,0.4,0.59,0
0.016403,-0.0028329,0.031267,-0.0018362,0.0088292,0.0024775,0,0,0.029169,-0.013865,0,0.0064414,0,0,0,0.031464,-0.0020329,0.0088292,4.2535,0.012753,0.029601,7.5339e-07,0.41,0.59,0
0.016691,-0.002936,0.030272,-0.002416,0.0083569,0.0024238,0,0,0.02849,-0.014005,0,0.0063019,0,0,0,0.03047,-0.0026137,0.0083569,4.2256,0.012071,0.029189,6.9657e-07,0.42,0.59,0
0.016973,-0.0030388,0.028937,-0.0032849,0.0076955,0.0023674,0,0,0.028127,-0.014553,0,0.0064425,0,0,0,0.029137,-0.0034855,0.0076955,4.2639,0.011116,0.028716,6.3225e-07,0.43,0.59,0
0.017252,-0.0031355,0.027447,-0.0039733,0.007042,0.0022391,0,0,0.029358,-0.015799,0,0.0068693,0,0,0,0.027636,-0.0041628,0.007042,4.2104,0.010172,0.027937,5.7198e-07,0.44,0.59,0
0.017556,-0.0032374,0.027072,-0.0039772,0.0069285,0.0021099,0,0,0.034013,-0.018017,0,0.0074198,0,0,0,0.02724,-0.0041447,0.0069285,3.9555,0.010008,0.027578,5.705e-07,0.45,0.59,0
0.017936,-0.0033748,0.027322,-0.0032111,0.0072333,0.0018174,0,0,0.041447,-0.020858,0,0.0072044,0,0,0,0.027452,-0.0033413,0.0072333,3.3586,0.010448,0.027118,5.6845e-07,0.46,0.59,0
0.018396,-0.0035472,0.026651,-0.0019361,0.0074144,0.0011084,0,0,0.046922,-0.022442,0,0.0050487,0,0,0,0.026712,-0.0019977,0.0074144,2.1637,0.01071,0.02536,4.8493e-07,0.47,0.59,0
0.01888,-0.0037217,0.025949,-0.00091001,0.0075116,0.00043831,0,0,0.047937,-0.021896,0,0.0022792,0,0,0,0.025962,-0.0009229,0.0075116,0.94493,0.01085,0.023816,4.1635e-07,0.48,0.59,0
0.019355,-0.003878,0.025935,-0.00038513,0.0076649,7.7908e-05,0,0,0.047502,-0.02093,0,0.00040512,0,0,0,0.025939,-0.00038882,0.0076649,0.15677,0.011072,0.023366,4.0639e-07,0.49,0.59,0
0.01983,-0.0040077,0.026233,-0.0001222,0.0078332,-0.0001396,0,0,0.047839,-0.020684,0,-0.00072591,0,0,0,0.026241,-0.00013081,0.0078332,-0.3437,0.011315,0.023429,4.1571e-07,0.5,0.59,0
0.020312,-0.0041053,0.026792,1.634e-05,0.0080424,-0.00025557,0,0,0.048748,-0.020868,0,-0.001329,0,0,0,0.026808,-2.1339e-07,0.0080424,-0.59952,0.011617,0.023828,4.4006e-07,0.51,0.59,0
0.020805,-0.0041755,0.027516,6.1296e-06,0.0082567,-0.00026266,0,0,0.050075,-0.021452,0,-0.0013658,0,0,0,0.027533,-1.0661e-05,0.0082567,-0.58968,0.011926,0.024481,4.7614e-07,0.52,0.59,0
0.021313,-0.0042234,0.028292,-0.00014242,0.0084448,-0.00014896,0,0,0.051602,-0.022327,0,-0.00077459,0,0,0,0.028304,-0.0001546,0.0084448,-0.32641,0.012198,0.025281,5.1915e-07,0.53,0.59,0
0.021837,-0.0042475,0.02904,-0.00014661,0.008668,3.9951e-05,0,0,0.052967,-0.022918,0,0.00020775,0,0,0,0.029049,-0.00015549,0.008668,0.06241,0.012521,0.025944,5.605e-07,0.54,0.59,0
0.022373,-0.0042487,0.029707,5.0478e-07,0.0089123,0.00021626,0,0,0.054067,-0.023171,0,0.0011246,0,0,0,0.029716,-7.9543e-06,0.0089123,0.40563,0.012873,0.026418,5.9644e-07,0.55,0.59,0
0.022919,-0.0042325,0.030284,0.00011107,0.0091184,0.00035689,0,0,0.055029,-0.023419,0,0.0018558,0,0,0,0.030293,0.00010119,0.0091184,0.6697,0.013171,0.026845,6.2928e-07,0.56,0.59,0
0.023473,-0.0042031,0.030798,0.00020227,0.0093,0.00049029,0,0,0.055894,-0.023654,0,0.0025495,0,0,0,0.03081,0.00019025,0.0093,0.91349,0.013433,0.027232,6.5977e-07,0.57,0.59,0
0.024036,-0.004163,0.031246,0.00033809,0.0094752,0.00061114,0,0,0.056604,-0.023756,0,0.0031779,0,0,0,0.031261,0.00032324,0.0094752,1.13,0.013686,0.027527,6.8588e-07,0.58,0.59,0
0.024606,-0.0041146,0.031619,0.00050917,0.0096383,0.00069595,0,0,0.057149,-0.023736,0,0.0036189,0,0,0,0.031636,0.00049183,0.0096383,1.2795,0.013922,0.027726,7.0669e-07,0.59,0.59,0
0.025179,-0.0040608,0.031929,0.00068335,0.0097836,0.00073233,0,0,0.057577,-0.023661,0,0.0038081,0,0,0,0.031947,0.00066497,0.0097836,1.3408,0.014132,0.027865,7.2339e-07,0.6,0.59,0
0.025757,-0.0040044,0.032194,0.0008361,0.0099089,0.00072424,0,0,0.05794,-0.023589,0,0.003766,0,0,0,0.032211,0.00081844,0.0099089,1.3215,0.014313,0.027978,7.3756e-07,0.61,0.59,0
0.026338,-0.0039476,0.032427,0.00095688,0.010015,0.00068181,0,0,0.058271,-0.023552,0,0.0035454,0,0,0,0.032443,0.00094132,0.010015,1.2399,0.014466,0.028086,7.5041e-07,0.62,0.59,0
0.026922,-0.0038922,0.032637,0.0010421,0.010104,0.00061516,0,0,0.058587,-0.02356,0,0.0031988,0,0,0,0.03265,0.0010294,0.010104,1.1145,0.014594,0.0282,7.6263e-07,0.63,0.59,0
0.02751,-0.0038395,0.032829,0.0010914,0.010176,0.00053295,0,0,0.058897,-0.02362,0,0.0027714,0,0,0,0.032838,0.0010818,0.010176,0.96153,0.014699,0.028326,7.7462e-07,0.64,0.59,0
0.0281,-0.0037904,0.033005,0.001107,0.010234,0.0004423,0,0,0.059206,-0.023729,0,0.0022999,0,0,0,0.033012,0.0011002,0.010234,0.79418,0.014782,0.028466,7.8659e-07,0.65,0.59,0
0.028694,-0.0037453,0.033168,0.0010922,0.010278,0.0003488,0,0,0.059514,-0.023883,0,0.0018138,0,0,0,0.033172,0.0010879,0.010278,0.62303,0.014846,0.028618,7.9863e-07,0.66,0.59,0
0.029291,-0.0037044,0.033319,0.0010514,0.010311,0.00025674,0,0,0.059821,-0.024076,0,0.0013351,0,0,0,0.033322,0.0010489,0.010311,0.45603,0.014894,0.028782,8.1072e-07,0.67,0.59,0
0.02989,-0.003668,0.03346,0.00098862,0.010334,0.00016924,0,0,0.060125,-0.024299,0,0.00088004,0,0,0,0.033461,0.00098735,0.010334,0.29888,0.014928,0.028955,8.2281e-07,0.68,0.59,0
0.030493,-0.0036358,0.033589,0.00090828,0.010349,8.8465e-05,0,0,0.060424,-0.024547,0,0.00046002,0,0,0,0.03359,0.00090771,0.010349,0.15539,0.014949,0.029133,8.3479e-07,0.69,0.59,0
0.031099,-0.0036076,0.033709,0.00081434,0.010357,1.5802e-05,0,0,0.060716,-0.024811,0,8.2171e-05,0,0,0,0.03371,0.00081406,0.010357,0.027834,0.01496,0.029313,8.4654e-07,0.7,0.59,0
0.031708,-0.0035833,0.033819,0.00071045,0.010359,-4.8019e-05,0,0,0.060997,-0.025086,0,-0.0002497,0,0,0,0.03382,0.00071017,0.010359,-0.082797,0.014963,0.029494,8.5795e-07,0.71,0.59,0
0.032319,-0.0035626,0.03392,0.00059988,0.010356,-0.00010278,0,0,0.061266,-0.025366,0,-0.00053446,0,0,0,0.03392,0.00059939,0.010356,-0.17646,0.014959,0.029671,8.6892e-07,0.72,0.59,0
0.032933,-0.003545,0.034011,0.00048542,0.010349,-0.00014865,0,0,0.061521,-0.025645,0,-0.00077297,0,0,0,0.034012,0.00048462,0.010349,-0.25379,0.014948,0.029844,8.7934e-07,0.73,0.59,0
0.033549,-0.0035303,0.034093,0.0003694,0.010339,-0.00018606,0,0,0.061761,-0.02592,0,-0.00096751,0,0,0,0.034094,0.00036827,0.010339,-0.31589,0.014934,0.03001,8.8915e-07,0.74,0.59,0
0.034168,-0.0035181,0.034166,0.00025374,0.010326,-0.00021563,0,0,0.061985,-0.026188,0,-0.0011213,0,0,0,0.034168,0.00025229,0.010326,-0.36412,0.014915,0.030168,8.9831e-07,0.75,0.59,0
0.034789,-0.0035083,0.034231,0.00013998,0.010311,-0.00023807,0,0,0.062192,-0.026446,0,-0.001238,0,0,0,0.034233,0.00013826,0.010311,-0.39994,0.014894,0.030317,9.0678e-07,0.76,0.59,0
0.035412,-0.0035003,0.034289,2.931e-05,0.010295,-0.00025413,0,0,0.062383,-0.026692,0,-0.0013215,0,0,0,0.034291,2.7381e-05,0.010295,-0.42486,0.014871,0.030456,9.1455e-07,0.77,0.59,0
0.036037,-0.0034941,0.034339,-7.7366e-05,0.010278,-0.00026457,0,0,0.062557,-0.026925,0,-0.0013757,0,0,0,0.034341,-7.9432e-05,0.010278,-0.44033,0.014847,0.030586,9.2163e-07,0.78,0.59,0
0.036663,-0.0034893,0.034382,-0.00017938,0.010261,-0.0002701,0,0,0.062715,-0.027145,0,-0.0014045,0,0,0,0.034384,-0.00018151,0.010261,-0.44768,0.014821,0.030707,9.2804e-07,0.79,0.59,0
0.037291,-0.0034858,0.034419,-0.00027626,0.010243,-0.00027143,0,0,0.062859,-0.02735,0,-0.0014114,0,0,0,0.034421,-0.0002784,0.010243,-0.44816,0.014795,0.030817,9.3381e-07,0.8,0.59,0
0.03792,-0.0034833,0.034451,-0.0003677,0.010225,-0.00026918,0,0,0.062987,-0.027541,0,-0.0013997,0,0,0,0.034453,-0.00036979,0.010225,-0.44288,0.014769,0.030918,9.3896e-07,0.81,0.59,0
0.038551,-0.0034816,0.034477,-0.00045353,0.010207,-0.00026391,0,0,0.063103,-0.027718,0,-0.0013723,0,0,0,0.034479,-0.00045553,0.010207,-0.43283,0.014744,0.03101,9.4353e-07,0.82,0.59,0
0.039182,-0.0034807,0.034499,-0.00053366,0.01019,-0.00025613,0,0,0.063205,-0.027881,0,-0.0013319,0,0,0,0.034501,-0.00053554,0.01019,-0.41887,0.014719,0.031094,9.4757e-07,0.83,0.59,0
0.039815,-0.0034804,0.034517,-0.00060812,0.010173,-0.00024631,0,0,0.063296,-0.02803,0,-0.0012808,0,0,0,0.034519,-0.00060985,0.010173,-0.40174,0.014694,0.031169,9.5112e-07,0.84,0.59,0
0.040448,-0.0034804,0.034532,-0.00067695,0.010156,-0.00023481,0,0,0.063376,-0.028167,0,-0.001221,0,0,0,0.034533,-0.00067852,0.010156,-0.3821,0.014671,0.031237,9.5422e-07,0.85,0.59,0
0.041082,-0.0034809,0.034543,-0.00074027,0.010141,-0.00022199,0,0,0.063446,-0.028291,0,-0.0011544,0,0,0,0.034545,-0.00074167,0.010141,-0.36048,0.014648,0.031298,9.5691e-07,0.86,0.59,0
0.041717,-0.0034816,0.034552,-0.00079822,0.010126,-0.00020814,0,0,0.063508,-0.028404,0,-0.0010823,0,0,0,0.034554,-0.00079945,0.010126,-0.33734,0.014627,0.031352,9.5923e-07,0.87,0.59,0
0.042352,-0.0034825,0.034559,-0.00085096,0.010112,-0.00019348,0,0,0.063561,-0.028505,0,-0.0010061,0,0,0,0.03456,-0.00085202,0.010112,-0.31307,0.014607,0.0314,9.6122e-07,0.88,0.59,0
0.042988,-0.0034835,0.034564,-0.00089866,0.0101,-0.00017823,0,0,0.063607,-0.028595,0,-0.00092681,0,0,0,0.034565,-0.00089956,0.0101,-0.28797,0.014588,0.031442,9.6291e-07,0.89,0.59,0
0.043625,-0.0034846,0.034567,-0.00094149,0.010088,-0.00016256,0,0,0.063646,-0.028676,0,-0.00084529,0,0,0,0.034568,-0.00094224,0.010088,-0.2623,0.014571,0.031479,9.6435e-07,0.9,0.59,0
0.044261,-0.0034857,0.034569,-0.00097964,0.010077,-0.00014658,0,0,0.06368,-0.028747,0,-0.00076223,0,0,0,0.03457,-0.00098025,0.010077,-0.23626,0.014555,0.031512,9.6555e-07,0.91,0.59,0
0.044898,-0.0034867,0.03457,-0.0010133,0.010067,-0.00013042,0,0,0.063708,-0.028809,0,-0.00067817,0,0,0,0.034571,-0.0010138,0.010067,-0.21,0.014541,0.03154,9.6655e-07,0.92,0.59,0
0.045535,-0.0034877,0.034571,-0.0010425,0.010058,-0.00011414,0,0,0.063732,-0.028863,0,-0.00059352,0,0,0,0.034571,-0.0010429,0.010058,-0.18364,0.014529,0.031563,9.6738e-07,0.93,0.59,0
0.046173,-0.0034887,0.034571,-0.0010676,0.010051,-9.7807e-05,0,0,0.063752,-0.028908,0,-0.0005086,0,0,0,0.034571,-0.0010679,0.010051,-0.15725,0.014518,0.031583,9.6805e-07,0.94,0.59,0
0.04681,-0.0034895,0.034571,-0.0010886,0.010045,-8.146e-05,0,0,0.063767,-0.028946,0,-0.00042359,0,0,0,0.034571,-0.0010888,0.010045,-0.13089,0.014509,0.0316,9.6859e-07,0.95,0.59,0
0.047448,-0.0034902,0.03457,-0.0011056,0.010039,-6.5124e-05,0,0,0.06378,-0.028977,0,-0.00033865,0,0,0,0.03457,-0.0011057,0.010039,-0.1046,0.014501,0.031613,9.6901e-07,0.96,0.59,0
0.048086,-0.0034907,0.03457,-0.0011187,0.010035,-4.8811e-05,0,0,0.063789,-0.029,0,-0.00025382,0,0,0,0.03457,-0.0011188,0.010035,-0.078368,0.014495,0.031623,9.6932e-07,0.97,0.59,0
0.048724,-0.0034911,0.034569,-0.001128,0.010032,-3.2523e-05,0,0,0.063796,-0.029017,0,-0.00016912,0,0,0,0.034569,-0.001128,0.010032,-0.052204,0.014491,0.03163,9.6953e-07,0.98,0.59,0
0.049362,-0.0034913,0.034569,-0.0011336,0.010031,-1.6648e-05,0,0,0.0638,-0.029027,0,-8.657e-05,0,0,0,0.034569,-0.0011336,0.010031,-0.026718,0.014489,0.031634,9.6966e-07,0.99,0.59,0
0.049681,-0.0034914,0.034569,-0.0011354,0.01003,-8.9112e-06,0,0,0.063801,-0.02903,0,-4.6338e-05,0,0,0,0.034569,-0.0011354,0.01003,-0.0143,0.014488,0.031636,9.697e-07,1,0.59,0
0.00023384,-3.8103e-05,0.031461,0.013284,0.013424,-0.0014635,0,0,0.046897,-0.00036198,0,-0.00761,0,0,0,0.031578,0.013167,0.013424,-4.5751,0.01939,0.018285,3.1377e-07,0,0.6,0
0.00046897,-7.4888e-05,0.031487,0.013096,0.013375,-0.0014507,0,0,0.047092,-0.00072565,0,-0.0075434,0,0,0,0.031602,0.012981,0.013375,-4.4852,0.019319,0.018427,3.2088e-07,0.01,0.6,0
0.00094184,-0.00014591,0.031583,0.012736,0.013296,-0.0014167,0,0,0.047548,-0.0014563,0,-0.0073667,0,0,0,0.03169,0.012629,0.013296,-4.2784,0.019205,0.018737,3.3647e-07,0.02,0.6,0
0.0014199,-0.00021199,0.031723,0.012391,0.013234,-0.0013786,0,0,0.048072,-0.0021933,0,-0.0071688,0,0,0,0.031822,0.012292,0.013234,-4.062,0.019116,0.019077,3.5369e-07,0.03,0.6,0
0.0019033,-0.00027336,0.031863,0.012043,0.013172,-0.0013484,0,0,0.048598,-0.0029355,0,-0.0070115,0,0,0,0.031955,0.011951,0.013172,-3.8773,0.019026,0.019423,3.714e-07,0.04,0.6,0
0.0023919,-0.00033014,0.032002,0.011693,0.013109,-0.0013247,0,0,0.049124,-0.0036811,0,-0.0068883,0,0,0,0.032089,0.011606,0.013109,-3.7193,0.018935,0.019775,3.8951e-07,0.05,0.6,0
0.0028858,-0.00038238,0.032139,0.011341,0.013044,-0.0013067,0,0,0.049647,-0.0044274,0,-0.0067947,0,0,0,0.032222,0.011259,0.013044,-3.584,0.018842,0.02013,4.0792e-07,0.06,0.6,0
0.0033848,-0.00043003,0.032273,0.01099,0.012979,-0.0012934,0,0,0.050165,-0.0051721,0,-0.0067257,0,0,0,0.032352,0.010911,0.012979,-3.4678,0.018747,0.020486,4.2651e-07,0.07,0.6,0
0.0038891,-0.00047293,0.032403,0.010637,0.012912,-0.0012836,0,0,0.050676,-0.0059139,0,-0.006675,0,0,0,0.032479,0.010562,0.012912,-3.3665,0.018651,0.020842,4.4518e-07,0.08,0.6,0
0.0043983,-0.0005108,0.032527,0.010284,0.012843,-0.0012755,0,0,0.051178,-0.0066542,0,-0.0066327,0,0,0,0.032601,0.010211,0.012843,-3.2742,0.018552,0.021197,4.639e-07,0.09,0.6,0
0.0049126,-0.00054318,0.032648,0.0099262,0.012772,-0.0012664,0,0,0.051676,-0.0073994,0,-0.0065854,0,0,0,0.032718,0.0098554,0.012772,-3.1834,0.018449,0.021554,4.8276e-07,0.1,0.6,0
0.0054319,-0.00056943,0.032768,0.0095573,0.012698,-0.0012531,0,0,0.052183,-0.008165,0,-0.0065159,0,0,0,0.032836,0.0094894,0.012698,-3.0845,0.018341,0.02192,5.022e-07,0.11,0.6,0
0.0059563,-0.00058873,0.032901,0.009164,0.01262,-0.0012335,0,0,0.052733,-0.0089847,0,-0.0064144,0,0,0,0.032966,0.0090995,0.01262,-2.9706,0.018228,0.022316,5.2338e-07,0.12,0.6,0
0.0064865,-0.00060026,0.033064,0.0087191,0.012535,-0.0012146,0,0,0.053376,-0.0099215,0,-0.0063157,0,0,0,0.033126,0.0086578,0.012535,-2.854,0.018106,0.022779,5.4844e-07,0.13,0.6,0
0.0070238,-0.00060369,0.033271,0.008196,0.01244,-0.0012219,0,0,0.054161,-0.011035,0,-0.006354,0,0,0,0.033332,0.0081352,0.01244,-2.7897,0.017969,0.023345,5.7969e-07,0.14,0.6,0
0.0075697,-0.00059961,0.033514,0.0076115,0.012338,-0.0012679,0,0,0.055059,-0.012288,0,-0.006593,0,0,0,0.033579,0.0075472,0.012338,-2.8079,0.017821,0.023999,6.1663e-07,0.15,0.6,0
0.008125,-0.00058611,0.034173,0.0070233,0.012359,-0.001426,0,0,0.055393,-0.013475,0,-0.0072548,0,0,0,0.034251,0.0069449,0.012359,-3.0144,0.017851,0.025044,7.0176e-07,0.16,0.6,0
0.0086813,-0.00056579,0.035388,0.0066064,0.012598,-0.0014751,0,0,0.053038,-0.013815,0,-0.0073225,0,0,0,0.035481,0.0065132,0.012598,-2.9904,0.018198,0.026457,8.496e-07,0.17,0.6,0
0.0091988,-0.00056233,0.035882,0.006465,0.012704,-0.000912,0,0,0.046564,-0.012504,0,-0.00485,0,0,0,0.035965,0.006382,0.012704,-1.8561,0.01835,0.026984,9.2568e-07,0.18,0.6,0
0.0096274,-0.00059964,0.035456,0.006455,0.012573,9.0226e-05,0,0,0.038617,-0.010364,0,-0.00091323,0,0,0,0.035519,0.0063919,0.012573,0.051672,0.018161,0.026582,8.8198e-07,0.19,0.6,0
0.0099746,-0.00067015,0.035833,0.0066732,0.012752,0.00087321,0,0,0.033317,-0.0088157,0,0.0018936,0,0,0,0.035889,0.0066167,0.012752,1.5641,0.018419,0.02674,8.5591e-07,0.2,0.6,0
0.01029,-0.00075402,0.036927,0.0070564,0.013195,0.0012187,0,0,0.031471,-0.0081565,0,0.0030893,0,0,0,0.036984,0.0069995,0.013195,2.2777,0.01906,0.027418,8.8915e-07,0.21,0.6,0
0.010602,-0.00084563,0.037439,0.007018,0.013337,0.001328,0,0,0.031333,-0.0082149,0,0.0034529,0,0,0,0.037498,0.0069587,0.013337,2.4915,0.019265,0.027904,9.2259e-07,0.22,0.6,0
0.010917,-0.00094428,0.03741,0.0065554,0.013189,0.0013785,0,0,0.031486,-0.0086244,0,0.0035841,0,0,0,0.037472,0.0064932,0.013189,2.5495,0.019051,0.028233,9.4065e-07,0.23,0.6,0
0.011232,-0.0010459,0.037262,0.0061599,0.013027,0.0014247,0,0,0.031506,-0.0089267,0,0.0037042,0,0,0,0.037328,0.0060942,0.013027,2.6147,0.018816,0.028409,9.4565e-07,0.24,0.6,0
0.011547,-0.0011495,0.037088,0.0058635,0.012885,0.0014289,0,0,0.031463,-0.0091285,0,0.0037152,0,0,0,0.037154,0.0057978,0.012885,2.6135,0.018612,0.028482,9.4355e-07,0.25,0.6,0
0.011861,-0.0012567,0.036922,0.005466,0.012716,0.0013776,0,0,0.031467,-0.0094253,0,0.0035817,0,0,0,0.036982,0.0054055,0.012716,2.5025,0.018368,0.02863,9.4553e-07,0.26,0.6,0
0.012176,-0.0013683,0.036768,0.0049611,0.012519,0.0013306,0,0,0.031524,-0.0098248,0,0.0034595,0,0,0,0.036824,0.0049053,0.012519,2.3907,0.018082,0.028875,9.527e-07,0.27,0.6,0
0.012492,-0.0014841,0.036622,0.0044273,0.012315,0.0013026,0,0,0.0316,-0.010254,0,0.0033868,0,0,0,0.036675,0.0043744,0.012315,2.3122,0.017788,0.029154,9.6146e-07,0.28,0.6,0
0.012808,-0.0016037,0.03647,0.0038589,0.012099,0.0012791,0,0,0.031683,-0.010712,0,0.0033257,0,0,0,0.03652,0.0038084,0.012099,2.2419,0.017476,0.029456,9.7039e-07,0.29,0.6,0
0.013125,-0.0017268,0.036304,0.0032009,0.011851,0.0012696,0,0,0.031788,-0.011246,0,0.003301,0,0,0,0.036353,0.0031519,0.011851,2.1921,0.017119,0.029819,9.8096e-07,0.3,0.6,0
0.013444,-0.0018524,0.036124,0.0024499,0.011572,0.0013114,0,0,0.031918,-0.011859,0,0.0034097,0,0,0,0.036176,0.0023985,0.011572,2.2245,0.016715,0.030253,9.9336e-07,0.31,0.6,0
0.013764,-0.0019788,0.035923,0.0016682,0.011277,0.0014342,0,0,0.03204,-0.012492,0,0.0037288,0,0,0,0.035984,0.0016074,0.011277,2.389,0.01629,0.030707,1.0047e-06,0.32,0.6,0
0.014085,-0.0021039,0.035682,0.00093259,0.010984,0.0016388,0,0,0.032107,-0.013067,0,0.004261,0,0,0,0.035761,0.0008539,0.010984,2.6888,0.015866,0.031105,1.0108e-06,0.33,0.6,0
0.014406,-0.0022257,0.035384,0.00030143,0.010706,0.0019021,0,0,0.032082,-0.013525,0,0.0049456,0,0,0,0.035489,0.00019623,0.010706,3.0887,0.015464,0.031388,1.0085e-06,0.34,0.6,0
0.014726,-0.002343,0.035024,-0.00019367,0.010449,0.0021878,0,0,0.031947,-0.013836,0,0.0056882,0,0,0,0.035163,-0.00033209,0.010449,3.5359,0.015093,0.031519,9.9683e-07,0.35,0.6,0
0.015045,-0.0024554,0.034607,-0.00055828,0.010215,0.0024597,0,0,0.03171,-0.014005,0,0.0063953,0,0,0,0.034782,-0.00073295,0.010215,3.9773,0.014754,0.031502,9.7643e-07,0.36,0.6,0
0.01536,-0.0025631,0.03414,-0.00083018,0.0099929,0.0026958,0,0,0.031391,-0.01407,0,0.007009,0,0,0,0.03435,-0.0010405,0.0099929,4.3779,0.014434,0.031365,9.4925e-07,0.37,0.6,0
0.015673,-0.0026673,0.033625,-0.0010574,0.0097703,0.0028925,0,0,0.031011,-0.014076,0,0.0075204,0,0,0,0.033868,-0.0013009,0.0097703,4.7298,0.014113,0.031146,9.1713e-07,0.38,0.6,0
0.015981,-0.0027692,0.03305,-0.001283,0.0095301,0.0030603,0,0,0.030576,-0.014057,0,0.0079567,0,0,0,0.033325,-0.0015583,0.0095301,5.0472,0.013766,0.030871,8.8077e-07,0.39,0.6,0
0.016284,-0.00287,0.032377,-0.0015483,0.0092487,0.0032138,0,0,0.030067,-0.014036,0,0.0083558,0,0,0,0.032685,-0.0018563,0.0092487,5.3533,0.013359,0.030543,8.3898e-07,0.4,0.6,0
0.016582,-0.0029713,0.031527,-0.0019162,0.0088833,0.0033625,0,0,0.029437,-0.014039,0,0.0087424,0,0,0,0.031872,-0.0022608,0.0088833,5.6661,0.012831,0.030147,7.8843e-07,0.41,0.6,0
0.016873,-0.0030751,0.030426,-0.0025069,0.0083756,0.003514,0,0,0.028665,-0.014147,0,0.0091364,0,0,0,0.030812,-0.0028938,0.0083756,5.996,0.012098,0.029721,7.2819e-07,0.42,0.6,0
0.017155,-0.0031837,0.028594,-0.0032027,0.0076173,0.0035371,0,0,0.02894,-0.014901,0,0.009979,0,0,0,0.02901,-0.0036183,0.0076173,6.3221,0.011003,0.028712,6.459e-07,0.43,0.6,0
0.017446,-0.0032974,0.027159,-0.0035868,0.0070716,0.0033128,0,0,0.031989,-0.01685,0,0.011124,0,0,0,0.02755,-0.0039785,0.0070716,6.2823,0.010215,0.027714,6.1077e-07,0.44,0.6,0
0.017789,-0.0034274,0.027467,-0.0033032,0.0072492,0.0029148,0,0,0.037218,-0.019287,0,0.011361,0,0,0,0.027775,-0.0036106,0.0072492,5.5978,0.010471,0.027614,6.5616e-07,0.45,0.6,0
0.018197,-0.0035885,0.027524,-0.0022988,0.0075676,0.0022534,0,0,0.041751,-0.020606,0,0.0097265,0,0,0,0.027716,-0.0024904,0.0075676,4.412,0.010931,0.026649,6.3445e-07,0.46,0.6,0
0.018634,-0.003764,0.026623,-0.0011482,0.0076426,0.0013924,0,0,0.043422,-0.020229,0,0.0064878,0,0,0,0.026709,-0.0012341,0.0076426,2.9199,0.011039,0.024734,5.4055e-07,0.47,0.6,0
0.019069,-0.0039281,0.026086,-0.00040437,0.0077044,0.00065426,0,0,0.04309,-0.019172,0,0.0030791,0,0,0,0.026111,-0.00043011,0.0077044,1.4284,0.011129,0.023554,4.8503e-07,0.48,0.6,0
0.019496,-0.0040765,0.02596,-8.2164e-06,0.0077856,6.5237e-05,0,0,0.042691,-0.018445,0,0.00013647,0,0,0,0.02597,-1.7667e-05,0.0077856,0.068103,0.011246,0.023098,4.6271e-07,0.49,0.6,0
0.019922,-0.0042053,0.026209,0.00013743,0.0079038,-0.00044331,0,0,0.04319,-0.0184,0,-0.0024487,0,0,0,0.026231,0.00011455,0.0079038,-1.1202,0.011417,0.023225,4.5911e-07,0.5,0.6,0
0.020363,-0.0043068,0.026651,0.00016167,0.0080437,-0.00080675,0,0,0.04515,-0.019105,0,-0.0042904,0,0,0,0.026694,0.00011848,0.0080437,-1.887,0.011619,0.023632,4.5961e-07,0.51,0.6,0
0.020832,-0.0043857,0.026975,7.1443e-05,0.0081139,-0.0009641,0,0,0.047972,-0.02043,0,-0.0050438,0,0,0,0.027023,2.3405e-05,0.0081139,-2.1143,0.01172,0.024,4.5625e-07,0.52,0.6,0
0.021325,-0.004445,0.027518,-0.00021459,0.0081909,-0.0009449,0,0,0.050249,-0.021854,0,-0.0049135,0,0,0,0.027564,-0.00026117,0.0081909,-1.9713,0.011831,0.024709,4.8122e-07,0.53,0.6,0
0.021837,-0.0044757,0.028321,-0.00034193,0.0083936,-0.00078245,0,0,0.05181,-0.022712,0,-0.0040687,0,0,0,0.028361,-0.00038236,0.0083936,-1.5822,0.012124,0.025514,5.2603e-07,0.54,0.6,0
0.022362,-0.0044794,0.029139,-0.0002142,0.0086774,-0.00053349,0,0,0.0532,-0.023118,0,-0.0027742,0,0,0,0.029164,-0.00023929,0.0086774,-1.0527,0.012534,0.026113,5.6869e-07,0.55,0.6,0
0.022901,-0.0044662,0.029918,-0.00011061,0.0089423,-0.00028543,0,0,0.054537,-0.023537,0,-0.0014842,0,0,0,0.029931,-0.0001231,0.0089423,-0.54891,0.012917,0.026701,6.1189e-07,0.56,0.6,0
0.023452,-0.0044398,0.030578,-1.8718e-05,0.0091677,-3.7916e-05,0,0,0.055666,-0.023885,0,-0.00019716,0,0,0,0.030584,-2.5396e-05,0.0091677,-0.071557,0.013242,0.027204,6.5029e-07,0.57,0.6,0
0.024014,-0.0044008,0.031105,0.0001709,0.0093827,0.0001923,0,0,0.056478,-0.023951,0,0.00099994,0,0,0,0.03111,0.00016579,0.0093827,0.35674,0.013553,0.027519,6.797e-07,0.58,0.6,0
0.024582,-0.0043519,0.031523,0.00041821,0.0095824,0.00035427,0,0,0.057046,-0.023827,0,0.0018422,0,0,0,0.03153,0.00041184,0.0095824,0.65284,0.013841,0.027696,7.0149e-07,0.59,0.6,0
0.025155,-0.004297,0.031861,0.00065176,0.0097539,0.00044123,0,0,0.057479,-0.023666,0,0.0022944,0,0,0,0.031869,0.00064396,0.0097539,0.80989,0.014089,0.027813,7.1858e-07,0.6,0.6,0
0.025732,-0.0042396,0.03215,0.00084789,0.0098995,0.00046935,0,0,0.057853,-0.023534,0,0.0024406,0,0,0,0.032159,0.0008397,0.0098995,0.85881,0.014299,0.027914,7.3334e-07,0.61,0.6,0
0.026312,-0.0041823,0.032406,0.0010012,0.010022,0.00045456,0,0,0.058198,-0.023454,0,0.0023637,0,0,0,0.032413,0.00099372,0.010022,0.82905,0.014476,0.028018,7.4692e-07,0.62,0.6,0
0.026895,-0.004127,0.032634,0.0011086,0.010123,0.00040962,0,0,0.058529,-0.023437,0,0.00213,0,0,0,0.03264,0.0011025,0.010123,0.74433,0.014622,0.028133,7.5989e-07,0.63,0.6,0
0.027482,-0.0040749,0.03284,0.0011713,0.010203,0.00034494,0,0,0.058855,-0.023483,0,0.0017937,0,0,0,0.032844,0.0011669,0.010203,0.62412,0.014738,0.028264,7.7264e-07,0.64,0.6,0
0.028073,-0.0040268,0.033028,0.0011933,0.010266,0.00026905,0,0,0.05918,-0.02359,0,0.0013991,0,0,0,0.033031,0.0011904,0.010266,0.48443,0.014829,0.028411,7.854e-07,0.65,0.6,0
0.028666,-0.0039833,0.033201,0.0011796,0.010314,0.00018851,0,0,0.059505,-0.02375,0,0.00098026,0,0,0,0.033202,0.001178,0.010314,0.33762,0.014898,0.028574,7.9824e-07,0.66,0.6,0
0.029263,-0.0039444,0.03336,0.001136,0.010349,0.00010822,0,0,0.05983,-0.023954,0,0.00056275,0,0,0,0.033361,0.0011351,0.010349,0.1928,0.014948,0.028749,8.1114e-07,0.67,0.6,0
0.029863,-0.0039103,0.033507,0.0010676,0.010373,3.1753e-05,0,0,0.060151,-0.024193,0,0.00016511,0,0,0,0.033508,0.0010672,0.010373,0.056501,0.014983,0.028933,8.2401e-07,0.68,0.6,0
0.030466,-0.0038807,0.033643,0.00097977,0.010387,-3.8415e-05,0,0,0.060466,-0.024458,0,-0.00019976,0,0,0,0.033643,0.0009794,0.010387,-0.066965,0.015003,0.029123,8.3674e-07,0.69,0.6,0
0.031072,-0.0038553,0.033768,0.00087725,0.010393,-0.00010073,0,0,0.060773,-0.024742,0,-0.00052379,0,0,0,0.033768,0.00087668,0.010393,-0.17507,0.015013,0.029316,8.4919e-07,0.7,0.6,0
0.031681,-0.0038338,0.033881,0.00076437,0.010394,-0.0001544,0,0,0.061068,-0.025036,0,-0.00080287,0,0,0,0.033882,0.00076344,0.010394,-0.26675,0.015013,0.029507,8.6123e-07,0.71,0.6,0
0.032293,-0.003816,0.033985,0.00064485,0.010389,-0.00019923,0,0,0.061349,-0.025334,0,-0.001036,0,0,0,0.033986,0.0006435,0.010389,-0.34204,0.015006,0.029694,8.7273e-07,0.72,0.6,0
0.032908,-0.0038013,0.034077,0.00052183,0.01038,-0.00023544,0,0,0.061614,-0.025631,0,-0.0012243,0,0,0,0.034079,0.00052005,0.01038,-0.40172,0.014993,0.029876,8.8359e-07,0.73,0.6,0
0.033526,-0.0037894,0.034161,0.00039785,0.010368,-0.00026357,0,0,0.061862,-0.025921,0,-0.0013706,0,0,0,0.034163,0.0003957,0.010368,-0.44703,0.014975,0.030049,8.9376e-07,0.74,0.6,0
0.034145,-0.00378,0.034234,0.00027497,0.010353,-0.0002843,0,0,0.062092,-0.026202,0,-0.0014784,0,0,0,0.034237,0.00027251,0.010353,-0.47945,0.014954,0.030213,9.0318e-07,0.75,0.6,0
0.034767,-0.0037728,0.034299,0.00015475,0.010336,-0.00029841,0,0,0.062303,-0.026471,0,-0.0015517,0,0,0,0.034301,0.00015209,0.010336,-0.50055,0.01493,0.030366,9.1183e-07,0.76,0.6,0
0.035391,-0.0037674,0.034355,3.8403e-05,0.010318,-0.00030669,0,0,0.062496,-0.026727,0,-0.0015948,0,0,0,0.034358,3.5623e-05,0.010318,-0.5119,0.014904,0.03051,9.1971e-07,0.77,0.6,0
0.036017,-0.0037635,0.034404,-7.3188e-05,0.010299,-0.00030994,0,0,0.062672,-0.026968,0,-0.0016117,0,0,0,0.034407,-7.6002e-05,0.010299,-0.51494,0.014877,0.030642,9.2684e-07,0.78,0.6,0
0.036645,-0.003761,0.034445,-0.0001794,0.01028,-0.00030889,0,0,0.062831,-0.027194,0,-0.0016062,0,0,0,0.034448,-0.00018218,0.01028,-0.51104,0.014849,0.030764,9.3324e-07,0.79,0.6,0
0.037274,-0.0037595,0.034481,-0.00027983,0.01026,-0.00030424,0,0,0.062973,-0.027404,0,-0.0015821,0,0,0,0.034483,-0.00028251,0.01026,-0.5014,0.01482,0.030875,9.3895e-07,0.8,0.6,0
0.037904,-0.0037589,0.03451,-0.00037423,0.010241,-0.0002966,0,0,0.0631,-0.027599,0,-0.0015423,0,0,0,0.034512,-0.00037677,0.010241,-0.4871,0.014792,0.030977,9.44e-07,0.81,0.6,0
0.038536,-0.0037591,0.034534,-0.00046249,0.010221,-0.00028653,0,0,0.063213,-0.027778,0,-0.00149,0,0,0,0.034536,-0.00046485,0.010221,-0.46906,0.014764,0.031068,9.4846e-07,0.82,0.6,0
0.039169,-0.0037598,0.034554,-0.0005446,0.010203,-0.00027451,0,0,0.063312,-0.027943,0,-0.0014275,0,0,0,0.034556,-0.00054676,0.010203,-0.44809,0.014737,0.031151,9.5236e-07,0.83,0.6,0
0.039802,-0.003761,0.034569,-0.00062062,0.010185,-0.00026096,0,0,0.0634,-0.028093,0,-0.001357,0,0,0,0.034571,-0.00062256,0.010185,-0.42488,0.014711,0.031226,9.5575e-07,0.84,0.6,0
0.040437,-0.0037624,0.034581,-0.00069068,0.010167,-0.00024625,0,0,0.063476,-0.02823,0,-0.0012805,0,0,0,0.034583,-0.00069241,0.010167,-0.39999,0.014686,0.031292,9.5868e-07,0.85,0.6,0
0.041072,-0.0037641,0.03459,-0.00075494,0.010151,-0.00023067,0,0,0.063543,-0.028354,0,-0.0011995,0,0,0,0.034592,-0.00075645,0.010151,-0.37391,0.014662,0.031351,9.6119e-07,0.86,0.6,0
0.041707,-0.0037659,0.034597,-0.00081357,0.010135,-0.00021448,0,0,0.063601,-0.028466,0,-0.0011153,0,0,0,0.034598,-0.00081488,0.010135,-0.34703,0.014639,0.031404,9.6334e-07,0.87,0.6,0
0.042344,-0.0037678,0.034601,-0.0008668,0.01012,-0.00019788,0,0,0.06365,-0.028567,0,-0.001029,0,0,0,0.034602,-0.00086791,0.01012,-0.31967,0.014618,0.03145,9.6516e-07,0.88,0.6,0
0.04298,-0.0037698,0.034604,-0.00091482,0.010107,-0.00018105,0,0,0.063693,-0.028656,0,-0.00094148,0,0,0,0.034605,-0.00091575,0.010107,-0.29207,0.014599,0.031491,9.6669e-07,0.89,0.6,0
0.043618,-0.0037716,0.034605,-0.00095785,0.010094,-0.00016412,0,0,0.063729,-0.028735,0,-0.00085343,0,0,0,0.034606,-0.00095861,0.010094,-0.26442,0.014581,0.031527,9.6797e-07,0.9,0.6,0
0.044255,-0.0037734,0.034606,-0.0009961,0.010083,-0.00014719,0,0,0.063759,-0.028805,0,-0.00076537,0,0,0,0.034606,-0.00099671,0.010083,-0.23688,0.014564,0.031557,9.6903e-07,0.91,0.6,0
0.044893,-0.0037751,0.034605,-0.0010297,0.010073,-0.00013032,0,0,0.063785,-0.028866,0,-0.00067765,0,0,0,0.034606,-0.0010302,0.010073,-0.20954,0.014549,0.031584,9.699e-07,0.92,0.6,0
0.045531,-0.0037766,0.034604,-0.001059,0.010064,-0.00011357,0,0,0.063806,-0.028919,0,-0.00059054,0,0,0,0.034605,-0.0010593,0.010064,-0.18246,0.014536,0.031606,9.7061e-07,0.93,0.6,0
0.046169,-0.003778,0.034603,-0.001084,0.010056,-9.6956e-05,0,0,0.063823,-0.028963,0,-0.00050417,0,0,0,0.034603,-0.0010842,0.010056,-0.15567,0.014525,0.031625,9.7117e-07,0.94,0.6,0
0.046807,-0.0037792,0.034602,-0.0011049,0.010049,-8.05e-05,0,0,0.063837,-0.029,0,-0.0004186,0,0,0,0.034602,-0.001105,0.010049,-0.12918,0.014515,0.03164,9.7162e-07,0.95,0.6,0
0.047446,-0.0037802,0.0346,-0.0011218,0.010044,-6.4192e-05,0,0,0.063847,-0.02903,0,-0.0003338,0,0,0,0.0346,-0.0011219,0.010044,-0.10297,0.014507,0.031653,9.7196e-07,0.96,0.6,0
0.048084,-0.003781,0.034599,-0.0011348,0.010039,-4.8016e-05,0,0,0.063856,-0.029053,0,-0.00024968,0,0,0,0.034599,-0.0011349,0.010039,-0.076994,0.014501,0.031662,9.7221e-07,0.97,0.6,0
0.048723,-0.0037815,0.034598,-0.0011441,0.010036,-3.1948e-05,0,0,0.063861,-0.029069,0,-0.00016613,0,0,0,0.034598,-0.0011441,0.010036,-0.051216,0.014497,0.031669,9.7238e-07,0.98,0.6,0
0.049361,-0.0037819,0.034598,-0.0011496,0.010034,-1.6503e-05,0,0,0.063864,-0.029078,0,-8.5817e-05,0,0,0,0.034598,-0.0011496,0.010034,-0.026453,0.014494,0.031673,9.7248e-07,0.99,0.6,0
0.049681,-0.003782,0.034597,-0.0011515,0.010034,-9.0698e-06,0,0,0.063865,-0.029082,0,-4.7163e-05,0,0,0,0.034597,-0.0011515,0.010034,-0.014537,0.014493,0.031674,9.7252e-07,1,0.6,0
0.00023263,-4.1643e-05,0.031299,0.013224,0.013357,-0.0015996,0,0,0.04665,-0.0003464,0,-0.0083179,0,0,0,0.03144,0.013083,0.013357,-5.0195,0.019293,0.018222,3.1052e-07,0,0.61,0
0.0004665,-8.1995e-05,0.031324,0.013042,0.01331,-0.0015869,0,0,0.046837,-0.00069634,0,-0.0082518,0,0,0,0.031462,0.012905,0.01331,-4.9269,0.019225,0.018358,3.1726e-07,0.01,0.61,0
0.00093675,-0.0001602,0.031415,0.012693,0.013233,-0.0015531,0,0,0.047275,-0.0014023,0,-0.008076,0,0,0,0.031544,0.012565,0.013233,-4.7137,0.019114,0.018655,3.3203e-07,0.02,0.61,0
0.001412,-0.00023354,0.031547,0.012356,0.013171,-0.0015147,0,0,0.047778,-0.0021187,0,-0.0078765,0,0,0,0.031667,0.012237,0.013171,-4.4887,0.019025,0.018981,3.4838e-07,0.03,0.61,0
0.0018923,-0.00030222,0.031677,0.012014,0.013108,-0.0014832,0,0,0.048281,-0.0028419,0,-0.0077125,0,0,0,0.031789,0.011903,0.013108,-4.2928,0.018933,0.019313,3.6515e-07,0.04,0.61,0
0.0023776,-0.00036636,0.031804,0.01167,0.013042,-0.001457,0,0,0.048781,-0.0035684,0,-0.0075763,0,0,0,0.031909,0.011564,0.013042,-4.1205,0.018839,0.019649,3.8222e-07,0.05,0.61,0
0.0028679,-0.00042595,0.031926,0.011323,0.012975,-0.0014351,0,0,0.049274,-0.0042952,0,-0.0074623,0,0,0,0.032026,0.011223,0.012975,-3.9681,0.018741,0.019986,3.9944e-07,0.06,0.61,0
0.0033631,-0.00048094,0.032042,0.010974,0.012905,-0.0014165,0,0,0.049757,-0.0050197,0,-0.0073656,0,0,0,0.032138,0.010879,0.012905,-3.832,0.018641,0.020322,4.1668e-07,0.07,0.61,0
0.0038631,-0.00053114,0.032151,0.010625,0.012833,-0.0014002,0,0,0.050228,-0.0057412,0,-0.0072809,0,0,0,0.032242,0.010534,0.012833,-3.7086,0.018536,0.020656,4.3384e-07,0.08,0.61,0
0.0043677,-0.0005763,0.032252,0.010272,0.012757,-0.001385,0,0,0.050686,-0.0064617,0,-0.0072022,0,0,0,0.032339,0.010185,0.012757,-3.594,0.018427,0.020987,4.5088e-07,0.09,0.61,0
0.0048768,-0.00061604,0.032345,0.0099125,0.012677,-0.00137,0,0,0.051137,-0.0071885,0,-0.0071239,0,0,0,0.032429,0.0098289,0.012677,-3.4844,0.018312,0.02132,4.6794e-07,0.1,0.61,0
0.0053904,-0.00064989,0.032435,0.0095397,0.012592,-0.001355,0,0,0.05159,-0.0079368,0,-0.0070459,0,0,0,0.032515,0.0094595,0.012592,-3.3778,0.018189,0.02166,4.8539e-07,0.11,0.61,0
0.0059086,-0.00067735,0.032524,0.0091408,0.012499,-0.0013435,0,0,0.052064,-0.0087325,0,-0.0069864,0,0,0,0.032601,0.0090636,0.012499,-3.2805,0.018055,0.022022,5.0394e-07,0.12,0.61,0
0.0064317,-0.00069804,0.032616,0.0087,0.012395,-0.0013463,0,0,0.052574,-0.0096061,0,-0.0070007,0,0,0,0.032691,0.0086242,0.012395,-3.2148,0.017903,0.022422,5.2435e-07,0.13,0.61,0
0.0069601,-0.00071189,0.032696,0.0082053,0.012271,-0.0013786,0,0,0.053107,-0.01057,0,-0.0071687,0,0,0,0.032774,0.0081276,0.012271,-3.2144,0.017724,0.022859,5.4644e-07,0.14,0.61,0
0.0074938,-0.00071879,0.032759,0.0076744,0.01213,-0.0014466,0,0,0.053635,-0.011584,0,-0.0075226,0,0,0,0.032842,0.0075909,0.01213,-3.292,0.017521,0.023317,5.6913e-07,0.15,0.61,0
0.0080328,-0.00071756,0.032839,0.007069,0.011973,-0.0015569,0,0,0.054254,-0.012749,0,-0.0080961,0,0,0,0.032934,0.0069749,0.011973,-3.4446,0.017294,0.023857,5.9618e-07,0.16,0.61,0
0.0085789,-0.0007082,0.033359,0.0064463,0.011942,-0.0017225,0,0,0.054433,-0.013938,0,-0.0089024,0,0,0,0.033473,0.0063324,0.011942,-3.6797,0.017249,0.024818,6.6674e-07,0.17,0.61,0
0.0091256,-0.00070065,0.034502,0.0061337,0.012191,-0.0017393,0,0,0.051986,-0.014083,0,-0.0088599,0,0,0,0.034633,0.0060019,0.012191,-3.6218,0.017609,0.026094,7.9787e-07,0.18,0.61,0
0.0096329,-0.00071622,0.035086,0.0060429,0.012339,-0.001226,0,0,0.045639,-0.012612,0,-0.0064206,0,0,0,0.035208,0.0059212,0.012339,-2.6086,0.017822,0.026664,8.8123e-07,0.19,0.61,0
0.010055,-0.00076498,0.035216,0.0060842,0.01239,-0.00031148,0,0,0.038336,-0.010615,0,-0.0025592,0,0,0,0.035303,0.0059966,0.01239,-0.88364,0.017897,0.026692,8.8571e-07,0.2,0.61,0
0.010406,-0.00083831,0.035953,0.0064267,0.012714,0.00058034,0,0,0.034088,-0.0092852,0,0.00081972,0,0,0,0.036019,0.0063611,0.012714,0.86667,0.018365,0.027048,8.9711e-07,0.21,0.61,0
0.010735,-0.00092945,0.036755,0.0065702,0.012997,0.0012435,0,0,0.032747,-0.0088754,0,0.0031013,0,0,0,0.036825,0.0065004,0.012997,2.2246,0.018774,0.027655,9.2407e-07,0.22,0.61,0
0.011057,-0.0010319,0.03733,0.0063354,0.0131,0.0015497,0,0,0.032125,-0.0089573,0,0.004044,0,0,0,0.037409,0.0062558,0.0131,2.8256,0.018922,0.028358,9.5667e-07,0.23,0.61,0
0.011375,-0.0011361,0.037551,0.0061512,0.013111,0.0016053,0,0,0.031773,-0.0090475,0,0.0041738,0,0,0,0.037634,0.0060686,0.013111,2.9183,0.018938,0.0287,9.7226e-07,0.24,0.61,0
0.011693,-0.0012412,0.037414,0.0059666,0.013014,0.0015576,0,0,0.03172,-0.0091618,0,0.0040497,0,0,0,0.037491,0.0058893,0.013014,2.8287,0.018798,0.028711,9.6779e-07,0.25,0.61,0
0.01201,-0.0013513,0.03728,0.005517,0.012839,0.0014767,0,0,0.031773,-0.0095185,0,0.0038395,0,0,0,0.037348,0.0054483,0.012839,2.6567,0.018545,0.028922,9.7434e-07,0.26,0.61,0
0.012328,-0.0014672,0.037155,0.0049307,0.012626,0.0014606,0,0,0.031888,-0.010003,0,0.0037976,0,0,0,0.037221,0.0048643,0.012626,2.5883,0.018237,0.029259,9.8788e-07,0.27,0.61,0
0.012647,-0.0015873,0.03702,0.0044239,0.012433,0.0014786,0,0,0.031963,-0.010412,0,0.0038443,0,0,0,0.037087,0.0043565,0.012433,2.5896,0.017959,0.029533,9.971e-07,0.28,0.61,0
0.012967,-0.0017113,0.036846,0.0039017,0.012224,0.0014658,0,0,0.032008,-0.010819,0,0.003811,0,0,0,0.036912,0.0038361,0.012224,2.5411,0.017657,0.029781,1.0025e-06,0.29,0.61,0
0.013288,-0.0018398,0.036645,0.0032091,0.011956,0.0014477,0,0,0.032095,-0.011371,0,0.003764,0,0,0,0.036708,0.003146,0.011956,2.4732,0.01727,0.03014,1.0114e-06,0.3,0.61,0
0.013609,-0.0019719,0.036434,0.0023548,0.011637,0.0014992,0,0,0.032237,-0.012066,0,0.0038979,0,0,0,0.036501,0.0022884,0.011637,2.5106,0.016808,0.030629,1.0251e-06,0.31,0.61,0
0.013932,-0.002105,0.0362,0.0014629,0.011299,0.0016641,0,0,0.032372,-0.012787,0,0.0043268,0,0,0,0.036281,0.001382,0.011299,2.7304,0.016321,0.031149,1.038e-06,0.32,0.61,0
0.014257,-0.0022361,0.035919,0.0006506,0.010971,0.0019317,0,0,0.032433,-0.013417,0,0.0050225,0,0,0,0.036027,0.00054276,0.010971,3.1183,0.015847,0.03159,1.0439e-06,0.33,0.61,0
0.014581,-0.0023627,0.035575,-1.7509e-05,0.010667,0.0022612,0,0,0.03238,-0.01389,0,0.0058792,0,0,0,0.035721,-0.00016386,0.010667,3.6136,0.015408,0.031881,1.0397e-06,0.34,0.61,0
0.014904,-0.002483,0.035176,-0.00050087,0.010403,0.0026034,0,0,0.032206,-0.014175,0,0.0067689,0,0,0,0.035369,-0.0006936,0.010403,4.1461,0.015026,0.031992,1.0251e-06,0.35,0.61,0
0.015225,-0.0025968,0.034746,-0.00081226,0.01018,0.0029107,0,0,0.031936,-0.01429,0,0.0075679,0,0,0,0.034987,-0.0010526,0.01018,4.6447,0.014705,0.031941,1.0027e-06,0.36,0.61,0
0.015543,-0.0027051,0.034305,-0.0010265,0.0099836,0.0031606,0,0,0.031618,-0.014313,0,0.0082176,0,0,0,0.034589,-0.0013101,0.0099836,5.0681,0.014421,0.031794,9.7624e-07,0.37,0.61,0
0.015857,-0.0028093,0.033869,-0.0012163,0.0097958,0.0033654,0,0,0.031295,-0.014316,0,0.0087501,0,0,0,0.034192,-0.0015388,0.0097958,5.4259,0.01415,0.031625,9.4943e-07,0.38,0.61,0
0.016169,-0.002911,0.033445,-0.0014259,0.0096058,0.0035547,0,0,0.030991,-0.014341,0,0.0092423,0,0,0,0.033806,-0.0017868,0.0096058,5.7565,0.013875,0.031483,9.2453e-07,0.39,0.61,0
0.016477,-0.0030119,0.033024,-0.0016887,0.0094006,0.0037603,0,0,0.030711,-0.014416,0,0.0097768,0,0,0,0.033429,-0.0020937,0.0094006,6.105,0.013579,0.031396,9.024e-07,0.4,0.61,0
0.016783,-0.0031137,0.032594,-0.0020487,0.0091637,0.0040088,0,0,0.03046,-0.014576,0,0.010423,0,0,0,0.033055,-0.0025094,0.0091637,6.506,0.013236,0.0314,8.8442e-07,0.41,0.61,0
0.017087,-0.003219,0.032204,-0.0025809,0.008887,0.0042633,0,0,0.030312,-0.014908,0,0.011085,0,0,0,0.032723,-0.0030994,0.008887,6.8828,0.012837,0.031584,8.7713e-07,0.42,0.61,0
0.017389,-0.0033357,0.031392,-0.0029624,0.0085289,0.0043006,0,0,0.031523,-0.015774,0,0.011885,0,0,0,0.03193,-0.0035008,0.0085289,7.0562,0.012319,0.031209,8.6203e-07,0.43,0.61,0
0.017711,-0.0034713,0.030921,-0.0028846,0.0084109,0.0039367,0,0,0.034789,-0.017406,0,0.012561,0,0,0,0.031402,-0.0033656,0.0084109,6.7427,0.012149,0.030634,8.905e-07,0.44,0.61,0
0.018076,-0.0036248,0.031614,-0.0023943,0.0087659,0.0032217,0,0,0.037997,-0.018803,0,0.011684,0,0,0,0.031961,-0.0027412,0.0087659,5.7168,0.012662,0.030626,9.7059e-07,0.45,0.61,0
0.018471,-0.0037895,0.031878,-0.0014487,0.0091288,0.0023453,0,0,0.039348,-0.018711,0,0.0090427,0,0,0,0.032072,-0.0016429,0.0091288,4.3088,0.013186,0.029835,9.7103e-07,0.46,0.61,0
0.018867,-0.0039526,0.031511,-0.0004858,0.0093074,0.0015749,0,0,0.039144,-0.017615,0,0.0060918,0,0,0,0.031601,-0.00057608,0.0093074,2.9992,0.013444,0.028553,9.1523e-07,0.47,0.61,0
0.019254,-0.0041051,0.031196,8.5631e-05,0.0093846,0.00096698,0,0,0.038432,-0.016641,0,0.0034792,0,0,0,0.031235,4.7248e-05,0.0093846,1.7977,0.013555,0.027726,8.6869e-07,0.48,0.61,0
0.019635,-0.0042469,0.030654,0.00037179,0.0093078,0.00042683,0,0,0.037707,-0.016009,0,0.0010337,0,0,0,0.030675,0.00035133,0.0093078,0.59294,0.013445,0.026986,8.0776e-07,0.49,0.61,0
0.020008,-0.0043763,0.030044,0.00043355,0.0091432,-4.2704e-05,0,0,0.038048,-0.015965,0,-0.0012006,0,0,0,0.030076,0.0004012,0.0091432,-0.48923,0.013207,0.026415,7.4048e-07,0.5,0.61,0
0.020401,-0.0044886,0.029433,0.00049771,0.0089792,-0.00049447,0,0,0.041114,-0.017021,0,-0.0033011,0,0,0,0.029485,0.00044552,0.0089792,-1.4084,0.01297,0.025854,6.7565e-07,0.51,0.61,0
0.020839,-0.0045847,0.028799,0.00050129,0.0087901,-0.0009771,0,0,0.045021,-0.018755,0,-0.0054129,0,0,0,0.028866,0.00043386,0.0087901,-2.2872,0.012697,0.025315,6.227e-07,0.52,0.61,0
0.021305,-0.0046604,0.028724,7.6604e-05,0.0086403,-0.0013947,0,0,0.047342,-0.02036,0,-0.0071798,0,0,0,0.028815,-1.3903e-05,0.0086403,-2.9731,0.01248,0.025626,6.1184e-07,0.53,0.61,0
0.02179,-0.0047017,0.029139,-0.00036131,0.0086334,-0.0015675,0,0,0.049732,-0.021849,0,-0.0078997,0,0,0,0.029242,-0.00046424,0.0086334,-3.1249,0.01247,0.026364,6.178e-07,0.54,0.61,0
0.022308,-0.0047111,0.029448,-0.00044268,0.0087015,-0.0013973,0,0,0.052754,-0.023232,0,-0.0071434,0,0,0,0.029529,-0.00052433,0.0087015,-2.6764,0.012569,0.026666,6.0774e-07,0.55,0.61,0
0.022849,-0.0047032,0.029921,-0.00045616,0.0088394,-0.0010203,0,0,0.054811,-0.024168,0,-0.0053055,0,0,0,0.029967,-0.00050266,0.0088394,-1.9134,0.012768,0.027038,6.226e-07,0.56,0.61,0
0.023404,-0.0046808,0.030589,-0.00037226,0.0090649,-0.00060674,0,0,0.055962,-0.024537,0,-0.0031551,0,0,0,0.030609,-0.00039218,0.0090649,-1.1168,0.013094,0.02752,6.6008e-07,0.57,0.61,0
0.023968,-0.004642,0.031137,-7.1941e-05,0.0093196,-0.00025344,0,0,0.056726,-0.024418,0,-0.0013179,0,0,0,0.031144,-7.8689e-05,0.0093196,-0.46041,0.013462,0.027745,6.8767e-07,0.58,0.61,0
0.024539,-0.0045911,0.031559,0.00027494,0.0095502,-1.4527e-05,0,0,0.057223,-0.024116,0,-7.5542e-05,0,0,0,0.031562,0.00027205,0.0095502,-0.023766,0.013795,0.027836,7.0712e-07,0.59,0.61,0
0.025113,-0.0045341,0.031909,0.00057287,0.0097446,0.00012661,0,0,0.057628,-0.023847,0,0.00065839,0,0,0,0.031912,0.00057049,0.0097446,0.23339,0.014076,0.027909,7.2336e-07,0.6,0.61,0
0.025691,-0.004475,0.032216,0.00082467,0.0099123,0.00019701,0,0,0.057991,-0.023628,0,0.0010245,0,0,0,0.032219,0.00082215,0.0099123,0.36084,0.014318,0.027982,7.38e-07,0.61,0.61,0
0.026273,-0.0044167,0.032483,0.0010198,0.010051,0.00021505,0,0,0.058323,-0.02348,0,0.0011183,0,0,0,0.032485,0.0010174,0.010051,0.39247,0.014518,0.028063,7.5132e-07,0.62,0.61,0
0.026858,-0.004361,0.032716,0.0011555,0.010161,0.00019489,0,0,0.058642,-0.023416,0,0.0010134,0,0,0,0.032718,0.0011535,0.010161,0.35446,0.014678,0.028163,7.6404e-07,0.63,0.61,0
0.027446,-0.0043092,0.032925,0.0012351,0.010248,0.00014976,0,0,0.058961,-0.023434,0,0.00077875,0,0,0,0.032927,0.0012337,0.010248,0.27136,0.014803,0.028284,7.7669e-07,0.64,0.61,0
0.028037,-0.0042622,0.033115,0.0012658,0.010314,9.006e-05,0,0,0.059283,-0.023526,0,0.00046831,0,0,0,0.033116,0.001265,0.010314,0.16261,0.014899,0.028428,7.8948e-07,0.65,0.61,0
0.028631,-0.0042203,0.033289,0.0012549,0.010363,2.3495e-05,0,0,0.059608,-0.023682,0,0.00012217,0,0,0,0.03329,0.0012544,0.010363,0.042623,0.014969,0.028591,8.0248e-07,0.66,0.61,0
0.029229,-0.0041835,0.03345,0.0012094,0.010398,-4.4271e-05,0,0,0.059935,-0.02389,0,-0.00023021,0,0,0,0.03345,0.0012089,0.010398,-0.078077,0.015019,0.028769,8.1562e-07,0.67,0.61,0
0.02983,-0.0041518,0.033598,0.0011359,0.01042,-0.00010906,0,0,0.060262,-0.024139,0,-0.00056711,0,0,0,0.033598,0.0011351,0.01042,-0.19191,0.015051,0.028959,8.2881e-07,0.68,0.61,0
0.030434,-0.0041249,0.033733,0.0010407,0.010432,-0.00016797,0,0,0.060583,-0.024418,0,-0.00087345,0,0,0,0.033735,0.0010396,0.010432,-0.29383,0.015069,0.029156,8.4189e-07,0.69,0.61,0
0.031042,-0.0041025,0.033858,0.00092975,0.010436,-0.00021923,0,0,0.060896,-0.024717,0,-0.00114,0,0,0,0.03386,0.00092804,0.010436,-0.38096,0.015075,0.029356,8.5469e-07,0.7,0.61,0
0.031652,-0.0040841,0.033971,0.000808,0.010434,-0.000262,0,0,0.061198,-0.025027,0,-0.0013624,0,0,0,0.033974,0.00080574,0.010434,-0.4522,0.015071,0.029554,8.6703e-07,0.71,0.61,0
0.032266,-0.0040692,0.034074,0.00067977,0.010426,-0.00029615,0,0,0.061484,-0.02534,0,-0.00154,0,0,0,0.034076,0.00067699,0.010426,-0.50772,0.01506,0.029748,8.7878e-07,0.72,0.61,0
0.032882,-0.0040576,0.034165,0.00054852,0.010414,-0.00032201,0,0,0.061753,-0.02565,0,-0.0016744,0,0,0,0.034168,0.00054532,0.010414,-0.54848,0.015043,0.029935,8.8983e-07,0.73,0.61,0
0.033501,-0.0040487,0.034246,0.00041702,0.010399,-0.00034021,0,0,0.062003,-0.025953,0,-0.0017691,0,0,0,0.03425,0.00041351,0.010399,-0.57591,0.015021,0.030112,9.0011e-07,0.74,0.61,0
0.034122,-0.0040422,0.034317,0.00028741,0.010381,-0.00035154,0,0,0.062233,-0.026244,0,-0.001828,0,0,0,0.034321,0.00028372,0.010381,-0.59163,0.014995,0.030279,9.0957e-07,0.75,0.61,0
0.034745,-0.0040377,0.034379,0.00016132,0.010362,-0.00035684,0,0,0.062444,-0.026522,0,-0.0018556,0,0,0,0.034383,0.00015755,0.010362,-0.5973,0.014968,0.030434,9.1819e-07,0.76,0.61,0
0.035371,-0.0040349,0.034432,3.9918e-05,0.010342,-0.00035697,0,0,0.062636,-0.026785,0,-0.0018563,0,0,0,0.034436,3.6179e-05,0.010342,-0.59453,0.014938,0.030579,9.2599e-07,0.77,0.61,0
0.035998,-0.0040335,0.034478,-7.5951e-05,0.010321,-0.00035275,0,0,0.062809,-0.027031,0,-0.0018343,0,0,0,0.034481,-7.9577e-05,0.010321,-0.58478,0.014907,0.030711,9.3298e-07,0.78,0.61,0
0.036627,-0.0040332,0.034516,-0.00018573,0.010299,-0.00034491,0,0,0.062963,-0.02726,0,-0.0017935,0,0,0,0.034519,-0.00018918,0.010299,-0.56937,0.014876,0.030833,9.3921e-07,0.79,0.61,0
0.037257,-0.0040339,0.034547,-0.00028908,0.010277,-0.00033414,0,0,0.063102,-0.027473,0,-0.0017375,0,0,0,0.03455,-0.00029229,0.010277,-0.54948,0.014845,0.030943,9.4472e-07,0.8,0.61,0
0.037889,-0.0040353,0.034573,-0.00038582,0.010256,-0.00032104,0,0,0.063224,-0.027669,0,-0.0016694,0,0,0,0.034576,-0.00038878,0.010256,-0.52611,0.014814,0.031043,9.4955e-07,0.81,0.61,0
0.038522,-0.0040372,0.034594,-0.00047593,0.010235,-0.00030614,0,0,0.063331,-0.027849,0,-0.001592,0,0,0,0.034596,-0.00047861,0.010235,-0.50013,0.014784,0.031133,9.5377e-07,0.82,0.61,0
0.039156,-0.0040396,0.03461,-0.00055945,0.010215,-0.0002899,0,0,0.063426,-0.028014,0,-0.0015075,0,0,0,0.034612,-0.00056184,0.010215,-0.47226,0.014755,0.031213,9.5742e-07,0.83,0.61,0
0.03979,-0.0040422,0.034622,-0.00063652,0.010196,-0.00027269,0,0,0.063508,-0.028163,0,-0.001418,0,0,0,0.034624,-0.00063863,0.010196,-0.44312,0.014727,0.031285,9.6056e-07,0.84,0.61,0
0.040426,-0.0040451,0.03463,-0.00070731,0.010177,-0.00025484,0,0,0.063579,-0.028299,0,-0.0013252,0,0,0,0.034632,-0.00070915,0.010177,-0.41319,0.0147,0.03135,9.6324e-07,0.85,0.61,0
0.041062,-0.004048,0.034636,-0.00077204,0.010159,-0.00023662,0,0,0.06364,-0.028422,0,-0.0012304,0,0,0,0.034638,-0.00077363,0.010159,-0.38288,0.014675,0.031406,9.6551e-07,0.86,0.61,0
0.041699,-0.0040509,0.03464,-0.00083095,0.010143,-0.00021823,0,0,0.063693,-0.028532,0,-0.0011348,0,0,0,0.034641,-0.0008323,0.010143,-0.35252,0.014651,0.031456,9.6742e-07,0.87,0.61,0
0.042336,-0.0040538,0.034642,-0.00088428,0.010127,-0.00019986,0,0,0.063738,-0.02863,0,-0.0010393,0,0,0,0.034643,-0.00088541,0.010127,-0.32234,0.014628,0.0315,9.6901e-07,0.88,0.61,0
0.042973,-0.0040566,0.034642,-0.00093228,0.010113,-0.00018162,0,0,0.063775,-0.028717,0,-0.00094444,0,0,0,0.034643,-0.00093322,0.010113,-0.29253,0.014607,0.031539,9.7032e-07,0.89,0.61,0
0.043611,-0.0040593,0.034641,-0.0009752,0.0101,-0.00016362,0,0,0.063807,-0.028795,0,-0.00085082,0,0,0,0.034642,-0.00097595,0.0101,-0.26323,0.014588,0.031572,9.714e-07,0.9,0.61,0
0.044249,-0.0040618,0.034639,-0.0010133,0.010088,-0.00014591,0,0,0.063833,-0.028863,0,-0.00075874,0,0,0,0.03464,-0.0010139,0.010088,-0.2345,0.014571,0.031601,9.7228e-07,0.91,0.61,0
0.044888,-0.0040641,0.034637,-0.0010467,0.010077,-0.00012854,0,0,0.063855,-0.028921,0,-0.0006684,0,0,0,0.034637,-0.0010471,0.010077,-0.2064,0.014556,0.031625,9.7298e-07,0.92,0.61,0
0.045527,-0.0040661,0.034634,-0.0010757,0.010067,-0.00011151,0,0,0.063873,-0.028972,0,-0.00057987,0,0,0,0.034634,-0.001076,0.010067,-0.17893,0.014542,0.031646,9.7354e-07,0.93,0.61,0
0.046165,-0.0040679,0.034631,-0.0011004,0.010059,-9.4833e-05,0,0,0.063887,-0.029015,0,-0.00049313,0,0,0,0.034631,-0.0011007,0.010059,-0.15207,0.01453,0.031663,9.7397e-07,0.94,0.61,0
0.046804,-0.0040695,0.034629,-0.0011211,0.010052,-7.8475e-05,0,0,0.063898,-0.029051,0,-0.00040807,0,0,0,0.034629,-0.0011213,0.010052,-0.12578,0.01452,0.031677,9.7431e-07,0.95,0.61,0
0.047443,-0.0040708,0.034626,-0.0011378,0.010047,-6.2406e-05,0,0,0.063907,-0.029079,0,-0.00032451,0,0,0,0.034626,-0.0011379,0.010047,-0.099984,0.014512,0.031689,9.7456e-07,0.96,0.61,0
0.048082,-0.0040718,0.034624,-0.0011507,0.010042,-4.6581e-05,0,0,0.063914,-0.029101,0,-0.00024222,0,0,0,0.034624,-0.0011507,0.010042,-0.074607,0.014505,0.031697,9.7474e-07,0.97,0.61,0
0.048722,-0.0040725,0.034623,-0.0011598,0.010039,-3.0945e-05,0,0,0.063918,-0.029117,0,-0.00016092,0,0,0,0.034623,-0.0011598,0.010039,-0.049553,0.014501,0.031703,9.7486e-07,0.98,0.61,0
0.049361,-0.0040729,0.034622,-0.0011652,0.010037,-1.6139e-05,0,0,0.063921,-0.029126,0,-8.3922e-05,0,0,0,0.034622,-0.0011653,0.010037,-0.02584,0.014498,0.031707,9.7493e-07,0.99,0.61,0
0.04968,-0.0040731,0.034622,-0.0011671,0.010036,-9.1097e-06,0,0,0.063921,-0.029129,0,-4.7371e-05,0,0,0,0.034622,-0.0011671,0.010036,-0.014585,0.014497,0.031708,9.7495e-07,1,0.61,0
0.00023147,-4.5031e-05,0.031144,0.013165,0.013293,-0.0017297,0,0,0.046413,-0.00033223,0,-0.0089942,0,0,0,0.031309,0.012999,0.013293,-5.4466,0.0192,0.018165,3.0757e-07,0,0.62,0
0.00046413,-8.8815e-05,0.031167,0.012989,0.013247,-0.0017169,0,0,0.046593,-0.00066979,0,-0.0089278,0,0,0,0.031329,0.012828,0.013247,-5.3511,0.019135,0.018295,3.1396e-07,0.01,0.62,0
0.00093186,-0.00017396,0.031254,0.012651,0.013171,-0.0016827,0,0,0.047015,-0.0013539,0,-0.0087498,0,0,0,0.031406,0.012499,0.013171,-5.1305,0.019025,0.01858,3.2801e-07,0.02,0.62,0
0.0014044,-0.00025436,0.031379,0.01232,0.01311,-0.0016428,0,0,0.047499,-0.0020527,0,-0.0085427,0,0,0,0.03152,0.012179,0.01311,-4.8941,0.018936,0.018893,3.4358e-07,0.03,0.62,0
0.0018819,-0.00033019,0.0315,0.011983,0.013045,-0.0016082,0,0,0.047984,-0.0027604,0,-0.0083626,0,0,0,0.031633,0.011851,0.013045,-4.6823,0.018843,0.019213,3.5954e-07,0.04,0.62,0
0.0023641,-0.00040151,0.031617,0.011642,0.012978,-0.0015772,0,0,0.048462,-0.0034723,0,-0.0082017,0,0,0,0.031741,0.011518,0.012978,-4.4901,0.018746,0.019535,3.7571e-07,0.05,0.62,0
0.0028511,-0.00046829,0.031727,0.011298,0.012908,-0.0015488,0,0,0.048931,-0.0041844,0,-0.008054,0,0,0,0.031844,0.011181,0.012908,-4.3139,0.018644,0.019857,3.9192e-07,0.06,0.62,0
0.0033427,-0.00053043,0.031829,0.010952,0.012834,-0.0015221,0,0,0.049386,-0.0048939,0,-0.007915,0,0,0,0.03194,0.010841,0.012834,-4.1508,0.018538,0.020176,4.0803e-07,0.07,0.62,0
0.0038388,-0.00058776,0.03192,0.010603,0.012757,-0.0014964,0,0,0.049825,-0.0056,0,-0.0077811,0,0,0,0.032025,0.010498,0.012757,-3.9983,0.018427,0.020492,4.2391e-07,0.08,0.62,0
0.0043392,-0.00064003,0.032001,0.010251,0.012675,-0.0014711,0,0,0.050246,-0.0063044,0,-0.0076495,0,0,0,0.0321,0.010151,0.012675,-3.8541,0.018309,0.020802,4.3951e-07,0.09,0.62,0
0.0048437,-0.00068695,0.03207,0.0098909,0.012588,-0.0014464,0,0,0.050653,-0.0070132,0,-0.0075212,0,0,0,0.032164,0.0097968,0.012588,-3.7177,0.018183,0.021111,4.5491e-07,0.1,0.62,0
0.0053523,-0.00072816,0.032128,0.0095181,0.012494,-0.001424,0,0,0.051049,-0.0077369,0,-0.0074049,0,0,0,0.032218,0.0094286,0.012494,-3.5917,0.018047,0.021422,4.7027e-07,0.11,0.62,0
0.0058647,-0.00076338,0.032174,0.009124,0.012389,-0.0014084,0,0,0.05144,-0.00849,0,-0.0073235,0,0,0,0.03226,0.0090381,0.012389,-3.4854,0.017896,0.021741,4.8586e-07,0.12,0.62,0
0.0063811,-0.00079238,0.032204,0.0087002,0.012271,-0.0014068,0,0,0.051824,-0.0092845,0,-0.0073152,0,0,0,0.032288,0.0086162,0.012271,-3.4145,0.017725,0.022073,5.0173e-07,0.13,0.62,0
0.0069012,-0.00081508,0.032212,0.0082442,0.012137,-0.0014262,0,0,0.052196,-0.010121,0,-0.0074164,0,0,0,0.032297,0.0081596,0.012137,-3.3941,0.017531,0.022415,5.1772e-07,0.14,0.62,0
0.007425,-0.0008313,0.032204,0.0077517,0.011987,-0.0014711,0,0,0.052564,-0.011011,0,-0.0076498,0,0,0,0.032292,0.0076635,0.011987,-3.4302,0.017314,0.022777,5.3417e-07,0.15,0.62,0
0.0079525,-0.00084109,0.032168,0.0071733,0.011802,-0.0015537,0,0,0.052951,-0.012036,0,-0.0080794,0,0,0,0.032265,0.0070769,0.011802,-3.5417,0.017048,0.02319,5.5214e-07,0.16,0.62,0
0.008484,-0.00084549,0.032117,0.0064773,0.011578,-0.0017217,0,0,0.053401,-0.013263,0,-0.0089528,0,0,0,0.032233,0.0063613,0.011578,-3.8172,0.016724,0.0237,5.7417e-07,0.17,0.62,0
0.0090205,-0.00084728,0.03249,0.005908,0.011519,-0.0019856,0,0,0.053287,-0.014249,0,-0.010242,0,0,0,0.032644,0.0057547,0.011519,-4.2742,0.016639,0.024521,6.3334e-07,0.18,0.62,0
0.0095538,-0.00085541,0.033412,0.0056709,0.011725,-0.0020918,0,0,0.050479,-0.01405,0,-0.010496,0,0,0,0.033596,0.0054875,0.011725,-4.44,0.016936,0.025567,7.4268e-07,0.19,0.62,0
0.010044,-0.00088337,0.034131,0.0057193,0.011955,-0.0016586,0,0,0.045173,-0.012704,0,-0.008309,0,0,0,0.034295,0.0055553,0.011955,-3.6615,0.017268,0.026135,8.316e-07,0.2,0.62,0
0.010473,-0.00093917,0.034399,0.0059375,0.012101,-0.00065699,0,0,0.040518,-0.011259,0,-0.0041639,0,0,0,0.034512,0.0058246,0.012101,-1.7578,0.017479,0.026123,8.5463e-07,0.21,0.62,0
0.01086,-0.0010225,0.034736,0.0059405,0.012203,0.00045911,0,0,0.036729,-0.010194,0,0.00011553,0,0,0,0.034822,0.005855,0.012203,0.51945,0.017627,0.026373,8.5514e-07,0.22,0.62,0
0.011205,-0.0011231,0.035721,0.0057823,0.012451,0.0011688,0,0,0.033407,-0.0095332,0,0.002693,0,0,0,0.035803,0.0057005,0.012451,1.9883,0.017985,0.02736,8.9094e-07,0.23,0.62,0
0.011525,-0.0012269,0.036996,0.0058747,0.012861,0.0014231,0,0,0.031956,-0.0092504,0,0.0036081,0,0,0,0.037073,0.0057979,0.012861,2.5336,0.018578,0.02841,9.5013e-07,0.24,0.62,0
0.011843,-0.0013327,0.037653,0.0058892,0.013063,0.0015054,0,0,0.031967,-0.0093254,0,0.0039141,0,0,0,0.037727,0.005815,0.013063,2.7071,0.018868,0.028977,9.9129e-07,0.25,0.62,0
0.012164,-0.0014471,0.037779,0.0054533,0.01297,0.0015665,0,0,0.032252,-0.0097715,0,0.0040729,0,0,0,0.037856,0.0053764,0.01297,2.7648,0.018734,0.029428,1.0215e-06,0.26,0.62,0
0.012488,-0.0015684,0.037733,0.0048693,0.012781,0.0016277,0,0,0.032438,-0.010285,0,0.0042321,0,0,0,0.037814,0.0047883,0.012781,2.8243,0.018461,0.029844,1.0428e-06,0.27,0.62,0
0.012813,-0.0016924,0.037545,0.0044191,0.012589,0.0016782,0,0,0.032443,-0.010621,0,0.0043634,0,0,0,0.037631,0.0043338,0.012589,2.89,0.018185,0.030033,1.0454e-06,0.28,0.62,0
0.013137,-0.0018201,0.037321,0.003956,0.012383,0.0016734,0,0,0.032419,-0.010955,0,0.0043508,0,0,0,0.037405,0.0038717,0.012383,2.8622,0.017887,0.030192,1.044e-06,0.29,0.62,0
0.013461,-0.0019542,0.037101,0.0032213,0.012097,0.0016456,0,0,0.032506,-0.011538,0,0.0042784,0,0,0,0.037182,0.0031411,0.012097,2.7724,0.017473,0.030565,1.0529e-06,0.3,0.62,0
0.013787,-0.0020937,0.036838,0.0021925,0.011709,0.0017271,0,0,0.032667,-0.012372,0,0.0044905,0,0,0,0.036925,0.0021054,0.011709,2.8404,0.016913,0.031151,1.0689e-06,0.31,0.62,0
0.014114,-0.0022345,0.036533,0.0011694,0.011311,0.0019726,0,0,0.032789,-0.013184,0,0.0051287,0,0,0,0.036646,0.001057,0.011311,3.1727,0.016338,0.031731,1.0814e-06,0.32,0.62,0
0.014443,-0.0023722,0.036167,0.00031442,0.010944,0.0023141,0,0,0.032789,-0.013819,0,0.0060166,0,0,0,0.03632,0.00016176,0.010944,3.668,0.015809,0.032154,1.0821e-06,0.33,0.62,0
0.01477,-0.0025035,0.035714,-0.00038954,0.010597,0.0026981,0,0,0.032652,-0.014283,0,0.0070151,0,0,0,0.03592,-0.00059492,0.010597,4.2424,0.015307,0.032403,1.0702e-06,0.34,0.62,0
0.015096,-0.0026265,0.035245,-0.00082956,0.010325,0.0030703,0,0,0.032396,-0.0145,0,0.0079828,0,0,0,0.035509,-0.0010937,0.010325,4.8257,0.014913,0.032438,1.0489e-06,0.35,0.62,0
0.015418,-0.0027412,0.034799,-0.0010385,0.010128,0.00336,0,0,0.032072,-0.014517,0,0.0087359,0,0,0,0.035115,-0.0013542,0.010128,5.308,0.01463,0.032297,1.0221e-06,0.36,0.62,0
0.015737,-0.0028494,0.0344,-0.0011849,0.0099646,0.0035581,0,0,0.031766,-0.014494,0,0.009251,0,0,0,0.034754,-0.0015393,0.0099646,5.6528,0.014393,0.032126,9.9624e-07,0.37,0.62,0
0.016053,-0.0029537,0.034089,-0.0013467,0.0098225,0.0037031,0,0,0.031546,-0.01452,0,0.009628,0,0,0,0.034472,-0.0017306,0.0098225,5.9009,0.014188,0.032029,9.775e-07,0.38,0.62,0
0.016368,-0.003056,0.033882,-0.0015531,0.0096987,0.0038362,0,0,0.031438,-0.014627,0,0.0099742,0,0,0,0.034293,-0.0019642,0.0096987,6.1071,0.014009,0.032059,9.6864e-07,0.39,0.62,0
0.016682,-0.0031583,0.033803,-0.0018226,0.0095941,0.0039825,0,0,0.031472,-0.014842,0,0.010355,0,0,0,0.034243,-0.0022631,0.0095941,6.3016,0.013858,0.032256,9.7239e-07,0.4,0.62,0
0.016998,-0.0032628,0.033923,-0.0021699,0.009526,0.0041394,0,0,0.031716,-0.015205,0,0.010762,0,0,0,0.034394,-0.0026408,0.009526,6.4661,0.01376,0.032696,9.9548e-07,0.41,0.62,0
0.017317,-0.0033733,0.034365,-0.0026169,0.0095244,0.0042171,0,0,0.032293,-0.015784,0,0.010965,0,0,0,0.034847,-0.0030991,0.0095244,6.4461,0.013757,0.03347,1.0479e-06,0.42,0.62,0
0.017643,-0.0034985,0.034918,-0.0028343,0.009625,0.0040692,0,0,0.033525,-0.016475,0,0.010788,0,0,0,0.035368,-0.0032842,0.009625,6.1093,0.013903,0.034084,1.1127e-06,0.43,0.62,0
0.017985,-0.0036452,0.035513,-0.0024618,0.0099154,0.0035884,0,0,0.035191,-0.017005,0,0.01008,0,0,0,0.035879,-0.0028273,0.0099154,5.4257,0.014322,0.034169,1.1794e-06,0.44,0.62,0
0.018343,-0.0038046,0.036354,-0.0017007,0.010396,0.0028589,0,0,0.036248,-0.017047,0,0.008507,0,0,0,0.036599,-0.0019457,0.010396,4.4287,0.015016,0.034097,1.2487e-06,0.45,0.62,0
0.018708,-0.0039636,0.037013,-0.00081381,0.01086,0.0021695,0,0,0.03644,-0.016472,0,0.0065012,0,0,0,0.037153,-0.00095407,0.01086,3.4189,0.015686,0.033791,1.2803e-06,0.46,0.62,0
0.019072,-0.0041163,0.037179,-3.1819e-05,0.011144,0.0016713,0,0,0.036242,-0.015695,0,0.0048768,0,0,0,0.037259,-0.00011242,0.011144,2.6523,0.016097,0.033209,1.2644e-06,0.47,0.62,0
0.019433,-0.0042609,0.036968,0.0004645,0.01123,0.0013272,0,0,0.03581,-0.015078,0,0.0037199,0,0,0,0.03702,0.00041267,0.01123,2.0874,0.016221,0.032576,1.2227e-06,0.48,0.62,0
0.019788,-0.0043967,0.036417,0.00069227,0.011133,0.0010767,0,0,0.035151,-0.014615,0,0.0027771,0,0,0,0.036458,0.00065126,0.011133,1.6114,0.016081,0.031887,1.1612e-06,0.49,0.62,0
0.020136,-0.0045257,0.035275,0.00078582,0.010818,0.00089123,0,0,0.035455,-0.014564,0,0.0020038,0,0,0,0.03532,0.00074072,0.010818,1.2157,0.015626,0.030805,1.0707e-06,0.5,0.62,0
0.020496,-0.0046493,0.033926,0.00096498,0.010467,0.00056691,0,0,0.037814,-0.015297,0,0.00070521,0,0,0,0.033978,0.00091308,0.010467,0.5769,0.015119,0.029476,9.9056e-07,0.51,0.62,0
0.020891,-0.0047619,0.033057,0.00097757,0.01021,-8.5652e-05,0,0,0.040012,-0.016381,0,-0.0018192,0,0,0,0.033117,0.00091833,0.01021,-0.65657,0.014748,0.028708,9.5449e-07,0.52,0.62,0
0.021296,-0.0048532,0.032333,0.00042386,0.0098271,-0.00083718,0,0,0.04133,-0.01755,0,-0.0047144,0,0,0,0.032418,0.00033946,0.0098271,-1.9857,0.014195,0.028549,9.0881e-07,0.53,0.62,0
0.021724,-0.0049148,0.031788,-0.00015769,0.0094892,-0.0014156,0,0,0.045261,-0.019635,0,-0.0071849,0,0,0,0.031903,-0.0002718,0.0094892,-2.8715,0.013707,0.028576,8.4822e-07,0.54,0.62,0
0.022217,-0.0049451,0.031353,-0.00035964,0.009298,-0.0016501,0,0,0.051349,-0.022469,0,-0.0084952,0,0,0,0.031468,-0.00047434,0.009298,-3.1422,0.01343,0.028349,7.7434e-07,0.55,0.62,0
0.022764,-0.0049496,0.030843,-0.00060787,0.0090706,-0.0015262,0,0,0.055348,-0.024628,0,-0.0079715,0,0,0,0.03093,-0.00069451,0.0090706,-2.8133,0.013102,0.028048,7.0224e-07,0.56,0.62,0
0.023328,-0.0049305,0.030829,-0.00074244,0.0090259,-0.0011803,0,0,0.056687,-0.025398,0,-0.0061374,0,0,0,0.030882,-0.00079596,0.0090259,-2.1281,0.013037,0.028087,6.8683e-07,0.57,0.62,0
0.023898,-0.0048892,0.031259,-0.0004253,0.0092502,-0.00075047,0,0,0.057224,-0.025156,0,-0.0039024,0,0,0,0.031285,-0.00045086,0.0092502,-1.3457,0.013361,0.028168,7.0561e-07,0.58,0.62,0
0.024473,-0.0048342,0.03172,4.0321e-05,0.0095281,-0.00041084,0,0,0.057699,-0.024668,0,-0.0021364,0,0,0,0.031729,3.1321e-05,0.0095281,-0.73657,0.013763,0.028177,7.2443e-07,0.59,0.62,0
0.025052,-0.004774,0.03211,0.00043288,0.0097627,-0.00020054,0,0,0.058102,-0.024258,0,-0.0010428,0,0,0,0.032113,0.00042942,0.0097627,-0.3581,0.014102,0.0282,7.4097e-07,0.6,0.62,0
0.025635,-0.0047122,0.032421,0.00076088,0.0099547,-7.5101e-05,0,0,0.058414,-0.023904,0,-0.00039053,0,0,0,0.032423,0.00075945,0.0099547,-0.13303,0.014379,0.028213,7.5397e-07,0.61,0.62,0
0.02622,-0.0046519,0.032679,0.0010117,0.010107,-2.034e-05,0,0,0.058686,-0.023648,0,-0.00010577,0,0,0,0.03268,0.0010109,0.010107,-0.034953,0.014599,0.028242,7.653e-07,0.62,0.62,0
0.026808,-0.0045953,0.032899,0.0011819,0.010224,-1.4809e-05,0,0,0.058955,-0.02351,0,-7.7006e-05,0,0,0,0.0329,0.0011813,0.010224,-0.025439,0.014769,0.028302,7.7629e-07,0.63,0.62,0
0.027399,-0.0045435,0.033096,0.0012823,0.010314,-4.0362e-05,0,0,0.059235,-0.023481,0,-0.00020988,0,0,0,0.033097,0.0012817,0.010314,-0.071638,0.014897,0.028398,7.8762e-07,0.64,0.62,0
0.027993,-0.0044973,0.033275,0.0013245,0.01038,-8.4108e-05,0,0,0.059528,-0.023544,0,-0.00043736,0,0,0,0.033276,0.0013237,0.01038,-0.14991,0.014993,0.028523,7.9946e-07,0.65,0.62,0
0.02859,-0.0044569,0.03344,0.0013182,0.010427,-0.00013731,0,0,0.059832,-0.023684,0,-0.00071401,0,0,0,0.033441,0.0013172,0.010427,-0.24408,0.015062,0.028675,8.1177e-07,0.66,0.62,0
0.02919,-0.0044222,0.033592,0.0012718,0.010459,-0.00019331,0,0,0.060145,-0.023887,0,-0.0010052,0,0,0,0.033593,0.0012703,0.010459,-0.34191,0.015108,0.028848,8.2449e-07,0.67,0.62,0
0.029793,-0.0043931,0.033733,0.0011934,0.010478,-0.00024701,0,0,0.060462,-0.024139,0,-0.0012845,0,0,0,0.033735,0.0011912,0.010478,-0.43421,0.015135,0.029036,8.3745e-07,0.68,0.62,0
0.030399,-0.004369,0.033863,0.0010909,0.010486,-0.00029494,0,0,0.060779,-0.024427,0,-0.0015337,0,0,0,0.033866,0.001088,0.010486,-0.51497,0.015147,0.029234,8.5042e-07,0.69,0.62,0
0.031008,-0.0043496,0.033982,0.0009714,0.010486,-0.00033513,0,0,0.061089,-0.024738,0,-0.0017427,0,0,0,0.033985,0.00096778,0.010486,-0.58106,0.015146,0.029436,8.6318e-07,0.7,0.62,0
0.031621,-0.0043344,0.03409,0.00084084,0.010479,-0.00036679,0,0,0.061388,-0.02506,0,-0.0019073,0,0,0,0.034094,0.00083663,0.010479,-0.63152,0.015137,0.029637,8.7549e-07,0.71,0.62,0
0.032236,-0.0043228,0.034187,0.00070409,0.010467,-0.00038995,0,0,0.061672,-0.025385,0,-0.0020277,0,0,0,0.034192,0.00069943,0.010467,-0.6668,0.01512,0.029833,8.8718e-07,0.72,0.62,0
0.032854,-0.0043143,0.034274,0.00056499,0.010452,-0.00040512,0,0,0.061938,-0.025705,0,-0.0021066,0,0,0,0.034279,0.00056002,0.010452,-0.68819,0.015097,0.030021,8.9812e-07,0.73,0.62,0
0.033475,-0.0043085,0.03435,0.00042646,0.010433,-0.00041308,0,0,0.062184,-0.026017,0,-0.002148,0,0,0,0.034355,0.00042136,0.010433,-0.69735,0.01507,0.030199,9.0824e-07,0.74,0.62,0
0.034098,-0.0043049,0.034416,0.00029073,0.010412,-0.00041475,0,0,0.06241,-0.026315,0,-0.0021567,0,0,0,0.034421,0.00028564,0.010412,-0.69609,0.015039,0.030366,9.1749e-07,0.75,0.62,0
0.034723,-0.0043032,0.034472,0.00015941,0.010389,-0.00041106,0,0,0.062615,-0.026598,0,-0.0021375,0,0,0,0.034477,0.00015445,0.010389,-0.68617,0.015007,0.030521,9.2586e-07,0.76,0.62,0
0.03535,-0.0043031,0.03452,3.3652e-05,0.010366,-0.00040291,0,0,0.0628,-0.026864,0,-0.0020952,0,0,0,0.034525,2.8917e-05,0.010366,-0.66922,0.014973,0.030663,9.3337e-07,0.77,0.62,0
0.035979,-0.0043041,0.03456,-8.5788e-05,0.010342,-0.00039114,0,0,0.062966,-0.027113,0,-0.002034,0,0,0,0.034564,-9.0224e-05,0.010342,-0.64672,0.014939,0.030794,9.4005e-07,0.78,0.62,0
0.036609,-0.0043062,0.034593,-0.00019842,0.010318,-0.00037651,0,0,0.063113,-0.027343,0,-0.0019578,0,0,0,0.034597,-0.00020251,0.010318,-0.61995,0.014904,0.030912,9.4593e-07,0.79,0.62,0
0.037241,-0.004309,0.034619,-0.000304,0.010295,-0.00035967,0,0,0.063244,-0.027556,0,-0.0018703,0,0,0,0.034623,-0.00030772,0.010295,-0.59001,0.01487,0.031019,9.5109e-07,0.8,0.62,0
0.037874,-0.0043123,0.03464,-0.00040243,0.010271,-0.0003412,0,0,0.063358,-0.027751,0,-0.0017743,0,0,0,0.034643,-0.00040576,0.010271,-0.55783,0.014836,0.031116,9.5556e-07,0.81,0.62,0
0.038508,-0.0043161,0.034656,-0.00049375,0.010249,-0.00032161,0,0,0.063458,-0.02793,0,-0.0016724,0,0,0,0.034658,-0.0004967,0.010249,-0.52421,0.014803,0.031203,9.5942e-07,0.82,0.62,0
0.039143,-0.0043201,0.034667,-0.00057809,0.010227,-0.00030129,0,0,0.063545,-0.028092,0,-0.0015667,0,0,0,0.03467,-0.00058068,0.010227,-0.48978,0.014772,0.03128,9.6271e-07,0.83,0.62,0
0.039779,-0.0043242,0.034675,-0.00065565,0.010206,-0.00028061,0,0,0.063619,-0.02824,0,-0.0014592,0,0,0,0.034677,-0.00065789,0.010206,-0.45506,0.014742,0.031348,9.655e-07,0.84,0.62,0
0.040416,-0.0043284,0.034679,-0.00072667,0.010186,-0.00025983,0,0,0.063683,-0.028372,0,-0.0013511,0,0,0,0.034681,-0.00072858,0.010186,-0.42047,0.014713,0.031409,9.6784e-07,0.85,0.62,0
0.041053,-0.0043325,0.034681,-0.00079141,0.010167,-0.00023918,0,0,0.063738,-0.028492,0,-0.0012437,0,0,0,0.034683,-0.00079303,0.010167,-0.38632,0.014686,0.031462,9.6979e-07,0.86,0.62,0
0.041691,-0.0043366,0.034681,-0.00085016,0.010149,-0.00021882,0,0,0.063783,-0.028599,0,-0.0011379,0,0,0,0.034683,-0.00085151,0.010149,-0.35287,0.01466,0.031509,9.714e-07,0.87,0.62,0
0.042329,-0.0043404,0.03468,-0.00090321,0.010133,-0.0001989,0,0,0.063822,-0.028694,0,-0.0010343,0,0,0,0.034681,-0.00090432,0.010133,-0.32028,0.014637,0.031549,9.727e-07,0.88,0.62,0
0.042967,-0.0043441,0.034677,-0.00095083,0.010118,-0.0001795,0,0,0.063854,-0.028778,0,-0.00093338,0,0,0,0.034678,-0.00095174,0.010118,-0.28867,0.014615,0.031585,9.7376e-07,0.89,0.62,0
0.043606,-0.0043475,0.034673,-0.00099331,0.010104,-0.00016066,0,0,0.06388,-0.028853,0,-0.00083545,0,0,0,0.034674,-0.00099404,0.010104,-0.25811,0.014595,0.031615,9.7459e-07,0.9,0.62,0
0.044245,-0.0043507,0.034669,-0.0010309,0.010091,-0.00014243,0,0,0.063901,-0.028918,0,-0.00074063,0,0,0,0.034669,-0.0010315,0.010091,-0.2286,0.014576,0.031641,9.7524e-07,0.91,0.62,0
0.044884,-0.0043535,0.034664,-0.0010639,0.01008,-0.0001248,0,0,0.063918,-0.028974,0,-0.00064895,0,0,0,0.034665,-0.0010643,0.01008,-0.20014,0.01456,0.031663,9.7575e-07,0.92,0.62,0
0.045523,-0.0043561,0.034659,-0.0010924,0.01007,-0.00010775,0,0,0.063932,-0.029023,0,-0.00056029,0,0,0,0.03466,-0.0010927,0.01007,-0.17269,0.014546,0.031682,9.7613e-07,0.93,0.62,0
0.046162,-0.0043583,0.034655,-0.0011167,0.010061,-9.1242e-05,0,0,0.063943,-0.029063,0,-0.00047446,0,0,0,0.034655,-0.0011169,0.010061,-0.14615,0.014533,0.031697,9.7641e-07,0.94,0.62,0
0.046802,-0.0043602,0.034651,-0.001137,0.010054,-7.5229e-05,0,0,0.063952,-0.029097,0,-0.00039119,0,0,0,0.034651,-0.0011371,0.010054,-0.12045,0.014523,0.03171,9.7661e-07,0.95,0.62,0
0.047441,-0.0043618,0.034647,-0.0011533,0.010048,-5.9645e-05,0,0,0.063958,-0.029124,0,-0.00031015,0,0,0,0.034648,-0.0011535,0.010048,-0.095462,0.014514,0.03172,9.7675e-07,0.96,0.62,0
0.048081,-0.004363,0.034645,-0.001166,0.010044,-4.4414e-05,0,0,0.063963,-0.029145,0,-0.00023095,0,0,0,0.034645,-0.001166,0.010044,-0.071066,0.014507,0.031727,9.7685e-07,0.97,0.62,0
0.048721,-0.0043639,0.034642,-0.0011749,0.01004,-2.9456e-05,0,0,0.063966,-0.029159,0,-0.00015317,0,0,0,0.034642,-0.0011749,0.01004,-0.047122,0.014503,0.031733,9.7691e-07,0.98,0.62,0
0.04936,-0.0043644,0.034641,-0.0011802,0.010038,-1.5523e-05,0,0,0.063967,-0.029168,0,-8.0721e-05,0,0,0,0.034641,-0.0011802,0.010038,-0.024831,0.0145,0.031736,9.7695e-07,0.99,0.62,0
0.04968,-0.0043646,0.034641,-0.001182,0.010038,-9.013e-06,0,0,0.063968,-0.029171,0,-4.6868e-05,0,0,0,0.034641,-0.001182,0.010038,-0.014416,0.014499,0.031737,9.7696e-07,1,0.62,0
0.00023038,-4.8288e-05,0.030997,0.013108,0.013232,-0.0018545,0,0,0.046191,-0.0003207,0,-0.0096436,0,0,0,0.031188,0.012918,0.013232,-5.8577,0.019113,0.018116,3.0502e-07,0,0.63,0
0.00046191,-9.5391e-05,0.03102,0.012938,0.013188,-0.0018416,0,0,0.046365,-0.00064835,0,-0.0095761,0,0,0,0.031206,0.012752,0.013188,-5.759,0.019049,0.018241,3.1113e-07,0.01,0.63,0
0.0009273,-0.00018728,0.031103,0.012607,0.013113,-0.0018065,0,0,0.046774,-0.0013152,0,-0.009394,0,0,0,0.031279,0.012432,0.013113,-5.53,0.018941,0.018516,3.2458e-07,0.02,0.63,0
0.0013974,-0.00027459,0.031222,0.012282,0.013051,-0.0017644,0,0,0.047245,-0.002001,0,-0.009175,0,0,0,0.031386,0.012118,0.013051,-5.2801,0.018852,0.018819,3.3951e-07,0.03,0.63,0
0.0018722,-0.00035743,0.031338,0.011948,0.012986,-0.0017254,0,0,0.047715,-0.0026982,0,-0.0089719,0,0,0,0.03149,0.011795,0.012986,-5.0487,0.018757,0.019129,3.5481e-07,0.04,0.63,0
0.0023517,-0.0004358,0.031447,0.011609,0.012917,-0.0016879,0,0,0.048178,-0.0034007,0,-0.0087773,0,0,0,0.03159,0.011466,0.012917,-4.8317,0.018657,0.01944,3.7026e-07,0.05,0.63,0
0.0028358,-0.00050964,0.031548,0.011266,0.012844,-0.0016511,0,0,0.04863,-0.0041038,0,-0.0085856,0,0,0,0.031682,0.011132,0.012844,-4.6264,0.018552,0.01975,3.8567e-07,0.06,0.63,0
0.0033243,-0.00057882,0.031638,0.01092,0.012767,-0.001614,0,0,0.049064,-0.0048042,0,-0.0083929,0,0,0,0.031764,0.010794,0.012767,-4.4304,0.018442,0.020056,4.0088e-07,0.07,0.63,0
0.0038171,-0.00064314,0.031717,0.010571,0.012686,-0.0015763,0,0,0.049479,-0.0055005,0,-0.0081969,0,0,0,0.031834,0.010454,0.012686,-4.2422,0.018325,0.020357,4.1574e-07,0.08,0.63,0
0.0043139,-0.00070239,0.031782,0.010218,0.0126,-0.0015379,0,0,0.049873,-0.0061936,0,-0.0079971,0,0,0,0.031891,0.010108,0.0126,-4.0611,0.0182,0.02065,4.3018e-07,0.09,0.63,0
0.0048145,-0.00075631,0.031831,0.0098578,0.012507,-0.0014995,0,0,0.050243,-0.006887,0,-0.0077974,0,0,0,0.031933,0.0097558,0.012507,-3.888,0.018065,0.020938,4.4416e-07,0.1,0.63,0
0.0053187,-0.00080463,0.031864,0.0094872,0.012405,-0.001463,0,0,0.050592,-0.0075869,0,-0.0076076,0,0,0,0.031959,0.0093919,0.012405,-3.7267,0.017919,0.021222,4.5771e-07,0.11,0.63,0
0.0058264,-0.00084715,0.031877,0.0091007,0.012293,-0.0014319,0,0,0.050917,-0.0083006,0,-0.0074458,0,0,0,0.031967,0.009011,0.012293,-3.5846,0.017757,0.021504,4.7084e-07,0.12,0.63,0
0.0063371,-0.00088373,0.031867,0.0086934,0.012168,-0.0014107,0,0,0.051216,-0.0090339,0,-0.0073356,0,0,0,0.031952,0.0086078,0.012168,-3.4716,0.017576,0.021784,4.835e-07,0.13,0.63,0
0.0068507,-0.00091431,0.03183,0.0082603,0.012027,-0.0014043,0,0,0.051488,-0.0097941,0,-0.0073025,0,0,0,0.031914,0.0081768,0.012027,-3.3976,0.017373,0.022066,4.9568e-07,0.14,0.63,0
0.0073669,-0.00093901,0.031764,0.0077875,0.011865,-0.0014198,0,0,0.051736,-0.010602,0,-0.0073829,0,0,0,0.031848,0.0077037,0.011865,-3.3759,0.017139,0.022356,5.0754e-07,0.15,0.63,0
0.0078854,-0.00095828,0.031659,0.0072559,0.011674,-0.0014741,0,0,0.05196,-0.011488,0,-0.0076655,0,0,0,0.031748,0.0071669,0.011674,-3.441,0.016863,0.022667,5.1938e-07,0.16,0.63,0
0.0084061,-0.00097345,0.031488,0.0066495,0.011441,-0.0015913,0,0,0.052122,-0.012459,0,-0.0082749,0,0,0,0.031591,0.0065472,0.011441,-3.644,0.016526,0.022992,5.3023e-07,0.17,0.63,0
0.0089278,-0.00098663,0.031238,0.0059895,0.011168,-0.0017998,0,0,0.052181,-0.013465,0,-0.0093592,0,0,0,0.031368,0.0058593,0.011168,-4.0415,0.016132,0.023314,5.3929e-07,0.18,0.63,0
0.0094497,-0.0010001,0.031295,0.0054516,0.011024,-0.0020887,0,0,0.051514,-0.014136,0,-0.010718,0,0,0,0.031469,0.0052768,0.011024,-4.6024,0.015923,0.023846,5.7523e-07,0.19,0.63,0
0.0099621,-0.0010219,0.031691,0.0052773,0.01109,-0.0021737,0,0,0.049961,-0.014103,0,-0.011051,0,0,0,0.031888,0.0050798,0.01109,-4.8071,0.016019,0.024367,6.3316e-07,0.2,0.63,0
0.010457,-0.0010645,0.032281,0.0054509,0.01132,-0.0017716,0,0,0.047497,-0.01334,0,-0.0092698,0,0,0,0.032456,0.0052762,0.01132,-4.0598,0.01635,0.02472,6.913e-07,0.21,0.63,0
0.010921,-0.0011333,0.032928,0.0054836,0.011523,-0.0010347,0,0,0.04261,-0.011958,0,-0.0059776,0,0,0,0.033071,0.0053405,0.011523,-2.5796,0.016645,0.025215,7.4889e-07,0.22,0.63,0
0.011319,-0.0012222,0.033696,0.0052951,0.011697,-0.00025884,0,0,0.036648,-0.010561,0,-0.0025141,0,0,0,0.033805,0.0051861,0.011697,-1.0002,0.016896,0.025983,8.0165e-07,0.23,0.63,0
0.01166,-0.0013209,0.035236,0.0053984,0.01219,0.00038636,0,0,0.033566,-0.0098715,0,0.0001464,0,0,0,0.035308,0.0053264,0.01219,0.33615,0.017608,0.027207,8.8877e-07,0.24,0.63,0
0.011991,-0.0014277,0.036506,0.0055101,0.012605,0.00096672,0,0,0.033443,-0.0099099,0,0.0021783,0,0,0,0.036569,0.0054473,0.012605,1.5309,0.018207,0.028232,9.7002e-07,0.25,0.63,0
0.012327,-0.0015467,0.037045,0.0051918,0.012671,0.001441,0,0,0.033517,-0.01023,0,0.003687,0,0,0,0.037121,0.0051154,0.012671,2.453,0.018302,0.028978,1.0121e-06,0.26,0.63,0
0.012658,-0.0016729,0.037688,0.0047308,0.012726,0.0016458,0,0,0.033068,-0.010559,0,0.0042909,0,0,0,0.037772,0.0046462,0.012726,2.8157,0.018381,0.029917,1.059e-06,0.27,0.63,0
0.012986,-0.0017997,0.038019,0.0043255,0.012704,0.0017324,0,0,0.032911,-0.010891,0,0.0045043,0,0,0,0.038109,0.0042356,0.012704,2.935,0.01835,0.030534,1.0924e-06,0.28,0.63,0
0.013316,-0.0019305,0.037942,0.0038717,0.012544,0.0018113,0,0,0.033017,-0.011274,0,0.0047094,0,0,0,0.038039,0.0037752,0.012544,3.0341,0.018119,0.03083,1.1053e-06,0.29,0.63,0
0.013647,-0.0020706,0.037784,0.0031424,0.012278,0.0019005,0,0,0.033158,-0.011876,0,0.0049412,0,0,0,0.03789,0.0030365,0.012278,3.1228,0.017735,0.031276,1.1215e-06,0.3,0.63,0
0.013979,-0.0022193,0.037464,0.0019512,0.011825,0.0020871,0,0,0.033332,-0.012836,0,0.0054264,0,0,0,0.037591,0.0018251,0.011825,3.3367,0.01708,0.031964,1.1401e-06,0.31,0.63,0
0.014313,-0.0023687,0.036945,0.00073999,0.011306,0.0024377,0,0,0.033332,-0.013735,0,0.0063379,0,0,0,0.037117,0.00056864,0.011306,3.8202,0.01633,0.032538,1.1413e-06,0.32,0.63,0
0.014646,-0.0025125,0.036339,-0.00010339,0.010871,0.0029049,0,0,0.033108,-0.014266,0,0.0075526,0,0,0,0.03658,-0.00034477,0.010871,4.5167,0.015702,0.03279,1.122e-06,0.33,0.63,0
0.014976,-0.0026483,0.035703,-0.00073744,0.01049,0.0033131,0,0,0.032778,-0.014595,0,0.008614,0,0,0,0.036011,-0.0010453,0.01049,5.1456,0.015152,0.032846,1.092e-06,0.34,0.63,0
0.015302,-0.002773,0.035099,-0.0010669,0.01021,0.0036021,0,0,0.032356,-0.01466,0,0.0093655,0,0,0,0.03546,-0.001428,0.01021,5.6338,0.014747,0.032663,1.0544e-06,0.35,0.63,0
0.015623,-0.0028872,0.034614,-0.0011535,0.010038,0.0037712,0,0,0.031948,-0.014549,0,0.0098051,0,0,0,0.03501,-0.0015495,0.010038,5.9559,0.014499,0.032361,1.0185e-06,0.36,0.63,0
0.01594,-0.002995,0.034294,-0.0012537,0.0099121,0.0038339,0,0,0.031697,-0.014516,0,0.0099682,0,0,0,0.034704,-0.0016635,0.0099121,6.087,0.014317,0.032181,9.9524e-07,0.37,0.63,0
0.016257,-0.0030997,0.034154,-0.0014037,0.009825,0.0038567,0,0,0.031627,-0.014597,0,0.010028,0,0,0,0.034568,-0.0018175,0.009825,6.1198,0.014192,0.032184,9.8766e-07,0.38,0.63,0
0.016573,-0.0032036,0.034175,-0.0016129,0.0097688,0.0038716,0,0,0.031729,-0.014796,0,0.010066,0,0,0,0.03459,-0.0020273,0.0097688,6.1048,0.01411,0.032373,9.9498e-07,0.39,0.63,0
0.016891,-0.0033087,0.03437,-0.0018841,0.0097457,0.0038752,0,0,0.032011,-0.015119,0,0.010075,0,0,0,0.034781,-0.0022952,0.0097457,6.036,0.014077,0.03276,1.0183e-06,0.4,0.63,0
0.017213,-0.0034178,0.034779,-0.0022126,0.0097698,0.0038234,0,0,0.032512,-0.015577,0,0.0099408,0,0,0,0.035174,-0.0026081,0.0097698,5.8455,0.014112,0.033362,1.0609e-06,0.41,0.63,0
0.017541,-0.0035347,0.035403,-0.0025618,0.0098523,0.0036214,0,0,0.033216,-0.016138,0,0.0094156,0,0,0,0.035754,-0.0029135,0.0098523,5.4064,0.014231,0.034126,1.1211e-06,0.42,0.63,0
0.017878,-0.0036652,0.036156,-0.0026234,0.01006,0.0032228,0,0,0.033925,-0.016488,0,0.0083793,0,0,0,0.036436,-0.0029036,0.01006,4.7109,0.014531,0.034724,1.1843e-06,0.43,0.63,0
0.01822,-0.0038113,0.036916,-0.0020681,0.010454,0.0027033,0,0,0.0344,-0.016279,0,0.0070285,0,0,0,0.037117,-0.002269,0.010454,3.9261,0.015101,0.034815,1.2318e-06,0.44,0.63,0
0.018566,-0.0039657,0.037585,-0.0011631,0.010927,0.0022085,0,0,0.034656,-0.015717,0,0.005742,0,0,0,0.037719,-0.0012965,0.010927,3.233,0.015783,0.034566,1.2621e-06,0.45,0.63,0
0.018913,-0.004119,0.038087,-0.00034751,0.011322,0.0018548,0,0,0.034795,-0.01517,0,0.0048224,0,0,0,0.038179,-0.00043897,0.011322,2.747,0.016354,0.034286,1.2802e-06,0.46,0.63,0
0.019261,-0.0042665,0.038358,0.00026503,0.011587,0.00164,0,0,0.034802,-0.014718,0,0.0042639,0,0,0,0.038429,0.00019388,0.011587,2.4578,0.016736,0.034002,1.2829e-06,0.47,0.63,0
0.019609,-0.0044067,0.038426,0.00068147,0.011732,0.0015306,0,0,0.034702,-0.014366,0,0.0039795,0,0,0,0.038488,0.00061902,0.011732,2.3193,0.016946,0.033716,1.2725e-06,0.48,0.63,0
0.019956,-0.0045392,0.038404,0.0008925,0.011789,0.0014838,0,0,0.034599,-0.014165,0,0.0038578,0,0,0,0.038463,0.00083302,0.011789,2.2612,0.017028,0.033523,1.2618e-06,0.49,0.63,0
0.020301,-0.0046678,0.038032,0.0010331,0.01172,0.0014649,0,0,0.034859,-0.014133,0,0.0038082,0,0,0,0.038093,0.00097259,0.01172,2.2297,0.016928,0.033083,1.2363e-06,0.5,0.63,0
0.020651,-0.0047951,0.037398,0.0012712,0.011601,0.0013439,0,0,0.035475,-0.014198,0,0.0033995,0,0,0,0.037458,0.0012111,0.011601,2.0096,0.016757,0.03233,1.2013e-06,0.51,0.63,0
0.021007,-0.0049126,0.036892,0.0012761,0.011451,0.00097946,0,0,0.035601,-0.014346,0,0.0021789,0,0,0,0.036947,0.0012214,0.011451,1.3642,0.01654,0.03187,1.1757e-06,0.52,0.63,0
0.021361,-0.0050129,0.035647,0.00071496,0.010909,0.00050006,0,0,0.036057,-0.015009,0,0.00046251,0,0,0,0.035709,0.00065378,0.010909,0.49671,0.015757,0.031221,1.1017e-06,0.53,0.63,0
0.021729,-0.0050989,0.034122,0.00018867,0.010293,-5.4107e-05,0,0,0.03974,-0.016876,0,-0.0017957,0,0,0,0.034202,0.00010838,0.010293,-0.47765,0.014868,0.030315,1.016e-06,0.54,0.63,0
0.022162,-0.0051649,0.03343,7.9611e-05,0.010053,-0.00071202,0,0,0.046592,-0.019957,0,-0.0046194,0,0,0,0.03352,-1.0985e-05,0.010053,-1.5629,0.014521,0.029805,9.7167e-07,0.55,0.63,0
0.022672,-0.0051972,0.032915,-0.00030129,0.0097841,-0.0013001,0,0,0.05245,-0.023101,0,-0.0070839,0,0,0,0.033008,-0.0003945,0.0097841,-2.4681,0.014133,0.02966,9.2015e-07,0.56,0.63,0
0.023221,-0.0051887,0.032428,-0.00086432,0.0094691,-0.0015227,0,0,0.055688,-0.025153,0,-0.0078551,0,0,0,0.032515,-0.0009508,0.0094691,-2.7126,0.013678,0.029665,8.5929e-07,0.57,0.63,0
0.023794,-0.0051451,0.032124,-0.00081339,0.0093931,-0.0012546,0,0,0.057771,-0.025918,0,-0.0064476,0,0,0,0.032181,-0.00087068,0.0093931,-2.1803,0.013568,0.029301,7.9542e-07,0.58,0.63,0
0.024381,-0.0050845,0.032176,-0.00030254,0.009562,-0.00081769,0,0,0.058796,-0.025648,0,-0.004252,0,0,0,0.032201,-0.0003279,0.009562,-1.4271,0.013812,0.028884,7.6698e-07,0.59,0.63,0
0.02497,-0.0050193,0.032531,0.0002245,0.0098266,-0.00050193,0,0,0.059031,-0.024966,0,-0.00261,0,0,0,0.032541,0.00021468,0.0098266,-0.88284,0.014194,0.028752,7.7697e-07,0.6,0.63,0
0.025561,-0.0049531,0.032803,0.00066221,0.010039,-0.00031664,0,0,0.059184,-0.024381,0,-0.0016466,0,0,0,0.032807,0.00065811,0.010039,-0.56029,0.014501,0.028635,7.8423e-07,0.61,0.63,0
0.026154,-0.0048896,0.033013,0.00098034,0.010198,-0.00022795,0,0,0.059318,-0.023966,0,-0.0011853,0,0,0,0.033015,0.00097814,0.010198,-0.40528,0.01473,0.028566,7.9039e-07,0.62,0.63,0
0.026748,-0.0048312,0.033195,0.0011897,0.010315,-0.00020098,0,0,0.059486,-0.023726,0,-0.0010451,0,0,0,0.033196,0.001188,0.010315,-0.35811,0.0149,0.02856,7.9762e-07,0.63,0.63,0
0.027343,-0.0047788,0.033359,0.001314,0.010402,-0.00020956,0,0,0.059689,-0.023629,0,-0.0010897,0,0,0,0.033361,0.0013122,0.010402,-0.37338,0.015025,0.028608,8.061e-07,0.64,0.63,0
0.027941,-0.0047331,0.033512,0.0013716,0.010465,-0.00024021,0,0,0.059922,-0.023643,0,-0.0012491,0,0,0,0.033514,0.0013695,0.010465,-0.42712,0.015116,0.028699,8.157e-07,0.65,0.63,0
0.028542,-0.0046939,0.033654,0.0013722,0.010508,-0.00028338,0,0,0.060179,-0.023752,0,-0.0014736,0,0,0,0.033656,0.0013694,0.010508,-0.50198,0.015178,0.028826,8.2631e-07,0.66,0.63,0
0.029145,-0.0046612,0.033787,0.0013252,0.010534,-0.00033064,0,0,0.060459,-0.023942,0,-0.0017193,0,0,0,0.033791,0.0013215,0.010534,-0.58265,0.015215,0.028983,8.3782e-07,0.67,0.63,0
0.029751,-0.0046346,0.033913,0.0012413,0.010546,-0.00037544,0,0,0.060753,-0.024193,0,-0.0019523,0,0,0,0.033917,0.0012368,0.010546,-0.65752,0.015233,0.029163,8.4997e-07,0.68,0.63,0
0.03036,-0.0046135,0.034031,0.0011308,0.010548,-0.00041372,0,0,0.061054,-0.024486,0,-0.0021513,0,0,0,0.034036,0.0011254,0.010548,-0.7197,0.015237,0.029356,8.6238e-07,0.69,0.63,0
0.030972,-0.0045972,0.034139,0.0010024,0.010542,-0.00044356,0,0,0.061351,-0.024804,0,-0.0023065,0,0,0,0.034145,0.00099625,0.010542,-0.76623,0.015228,0.029556,8.747e-07,0.7,0.63,0
0.031587,-0.0045853,0.034238,0.00086284,0.01053,-0.00046447,0,0,0.06164,-0.025135,0,-0.0024153,0,0,0,0.034244,0.00085625,0.01053,-0.79674,0.01521,0.029755,8.8662e-07,0.71,0.63,0
0.032205,-0.0045769,0.034326,0.00071772,0.010513,-0.0004768,0,0,0.061913,-0.025468,0,-0.0024794,0,0,0,0.034333,0.00071086,0.010513,-0.81232,0.015186,0.029949,8.9791e-07,0.72,0.63,0
0.032825,-0.0045717,0.034403,0.00057111,0.010492,-0.00048136,0,0,0.062169,-0.025795,0,-0.002503,0,0,0,0.03441,0.00056419,0.010492,-0.81473,0.015156,0.030135,9.0845e-07,0.73,0.63,0
0.033448,-0.004569,0.034471,0.00042608,0.010469,-0.00047914,0,0,0.062405,-0.026112,0,-0.0024915,0,0,0,0.034478,0.00041928,0.010469,-0.806,0.015122,0.03031,9.1812e-07,0.74,0.63,0
0.034073,-0.0045685,0.034528,0.00028486,0.010444,-0.00047123,0,0,0.06262,-0.026414,0,-0.0024504,0,0,0,0.034535,0.00027834,0.010444,-0.78815,0.015086,0.030473,9.269e-07,0.75,0.63,0
0.034701,-0.0045696,0.034577,0.00014903,0.010418,-0.00045866,0,0,0.062814,-0.026699,0,-0.002385,0,0,0,0.034583,0.00014289,0.010418,-0.76307,0.015048,0.030624,9.3479e-07,0.76,0.63,0
0.03533,-0.0045722,0.034617,1.9649e-05,0.010391,-0.00044238,0,0,0.062988,-0.026966,0,-0.0023004,0,0,0,0.034623,1.3971e-05,0.010391,-0.73242,0.015009,0.030762,9.4179e-07,0.77,0.63,0
0.03596,-0.0045757,0.03465,-0.00010261,0.010364,-0.00042325,0,0,0.063142,-0.027214,0,-0.0022009,0,0,0,0.034655,-0.00010778,0.010364,-0.69767,0.01497,0.030888,9.4795e-07,0.78,0.63,0
0.036593,-0.0045801,0.034675,-0.00021736,0.010337,-0.00040203,0,0,0.063279,-0.027442,0,-0.0020906,0,0,0,0.03468,-0.000222,0.010337,-0.66006,0.014932,0.031002,9.5333e-07,0.79,0.63,0
0.037226,-0.004585,0.034695,-0.00032444,0.010311,-0.00037937,0,0,0.063398,-0.027653,0,-0.0019727,0,0,0,0.034699,-0.00032856,0.010311,-0.62062,0.014894,0.031104,9.5798e-07,0.8,0.63,0
0.037861,-0.0045903,0.034709,-0.00042386,0.010286,-0.0003558,0,0,0.063502,-0.027845,0,-0.0018502,0,0,0,0.034713,-0.00042748,0.010286,-0.58021,0.014857,0.031196,9.6195e-07,0.81,0.63,0
0.038496,-0.0045958,0.034719,-0.00051575,0.010261,-0.00033179,0,0,0.063591,-0.02802,0,-0.0017253,0,0,0,0.034722,-0.00051888,0.010261,-0.53951,0.014821,0.031277,9.6533e-07,0.82,0.63,0
0.039132,-0.0046014,0.034725,-0.0006003,0.010237,-0.00030771,0,0,0.063668,-0.028178,0,-0.0016001,0,0,0,0.034728,-0.00060299,0.010237,-0.49908,0.014787,0.031349,9.6816e-07,0.83,0.63,0
0.039769,-0.004607,0.034727,-0.00067779,0.010215,-0.00028385,0,0,0.063732,-0.028321,0,-0.001476,0,0,0,0.03473,-0.00068007,0.010215,-0.45936,0.014755,0.031413,9.705e-07,0.84,0.63,0
0.040407,-0.0046125,0.034727,-0.0007485,0.010194,-0.00026045,0,0,0.063787,-0.028449,0,-0.0013543,0,0,0,0.034729,-0.00075042,0.010194,-0.42065,0.014724,0.031469,9.7243e-07,0.85,0.63,0
0.041045,-0.0046178,0.034725,-0.00081278,0.010174,-0.00023768,0,0,0.063833,-0.028564,0,-0.0012359,0,0,0,0.034726,-0.00081437,0.010174,-0.38322,0.014695,0.031517,9.7398e-07,0.86,0.63,0
0.041684,-0.0046229,0.03472,-0.00087093,0.010155,-0.00021568,0,0,0.06387,-0.028667,0,-0.0011215,0,0,0,0.034722,-0.00087224,0.010155,-0.34722,0.014668,0.03156,9.7522e-07,0.87,0.63,0
0.042323,-0.0046277,0.034715,-0.00092329,0.010137,-0.00019452,0,0,0.063901,-0.028758,0,-0.0010115,0,0,0,0.034716,-0.00092436,0.010137,-0.31274,0.014643,0.031597,9.7619e-07,0.88,0.63,0
0.042962,-0.0046322,0.034708,-0.00097019,0.010121,-0.00017425,0,0,0.063926,-0.028838,0,-0.00090609,0,0,0,0.034709,-0.00097104,0.010121,-0.27984,0.01462,0.031628,9.7693e-07,0.89,0.63,0
0.043601,-0.0046363,0.034702,-0.0010119,0.010107,-0.00015489,0,0,0.063946,-0.028909,0,-0.00080542,0,0,0,0.034702,-0.0010126,0.010107,-0.24851,0.014599,0.031655,9.7747e-07,0.9,0.63,0
0.044241,-0.0046401,0.034694,-0.0010488,0.010094,-0.00013643,0,0,0.063962,-0.02897,0,-0.00070943,0,0,0,0.034695,-0.0010493,0.010094,-0.21871,0.01458,0.031678,9.7787e-07,0.91,0.63,0
0.04488,-0.0046435,0.034687,-0.001081,0.010082,-0.00011883,0,0,0.063974,-0.029023,0,-0.00061793,0,0,0,0.034688,-0.0010814,0.010082,-0.19037,0.014563,0.031698,9.7814e-07,0.92,0.63,0
0.04552,-0.0046466,0.03468,-0.0011089,0.010071,-0.00010205,0,0,0.063983,-0.029069,0,-0.00053064,0,0,0,0.034681,-0.0011092,0.010071,-0.16338,0.014548,0.031714,9.7832e-07,0.93,0.63,0
0.04616,-0.0046492,0.034674,-0.0011326,0.010062,-8.6002e-05,0,0,0.06399,-0.029107,0,-0.00044721,0,0,0,0.034674,-0.0011328,0.010062,-0.13762,0.014535,0.031727,9.7843e-07,0.94,0.63,0
0.0468,-0.0046514,0.034668,-0.0011523,0.010055,-7.0616e-05,0,0,0.063995,-0.029138,0,-0.0003672,0,0,0,0.034669,-0.0011524,0.010055,-0.11296,0.014524,0.031738,9.7848e-07,0.95,0.63,0
0.04744,-0.0046532,0.034664,-0.0011682,0.010049,-5.5794e-05,0,0,0.063999,-0.029164,0,-0.00029013,0,0,0,0.034664,-0.0011683,0.010049,-0.089221,0.014515,0.031746,9.7851e-07,0.96,0.63,0
0.04808,-0.0046547,0.03466,-0.0011805,0.010044,-4.1433e-05,0,0,0.064001,-0.029183,0,-0.00021545,0,0,0,0.03466,-0.0011805,0.010044,-0.066241,0.014508,0.031753,9.7851e-07,0.97,0.63,0
0.04872,-0.0046557,0.034657,-0.0011891,0.01004,-2.7424e-05,0,0,0.064003,-0.029197,0,-0.00014261,0,0,0,0.034657,-0.0011892,0.01004,-0.043837,0.014503,0.031757,9.7851e-07,0.98,0.63,0
0.04936,-0.0046563,0.034655,-0.0011943,0.010038,-1.4628e-05,0,0,0.064004,-0.029205,0,-7.6066e-05,0,0,0,0.034655,-0.0011943,0.010038,-0.02338,0.0145,0.03176,9.785e-07,0.99,0.63,0
0.04968,-0.0046565,0.034655,-0.001196,0.010038,-8.7627e-06,0,0,0.064004,-0.029207,0,-4.5566e-05,0,0,0,0.034655,-0.001196,0.010038,-0.014005,0.014499,0.03176,9.785e-07,1,0.63,0
0.00022938,-5.1445e-05,0.030863,0.013055,0.013176,-0.0019755,0,0,0.045988,-0.00031275,0,-0.010273,0,0,0,0.03108,0.012838,0.013176,-6.2555,0.019031,0.018076,3.0297e-07,0,0.64,0
0.00045988,-0.00010178,0.030886,0.012888,0.013132,-0.0019623,0,0,0.046159,-0.00063381,0,-0.010204,0,0,0,0.031098,0.012676,0.013132,-6.1531,0.018969,0.018198,3.0887e-07,0.01,0.64,0
0.00092318,-0.00020026,0.030966,0.012563,0.013059,-0.0019263,0,0,0.04656,-0.0012897,0,-0.010017,0,0,0,0.031166,0.012363,0.013059,-5.9149,0.018863,0.018466,3.2188e-07,0.02,0.64,0
0.0013911,-0.00029439,0.031082,0.012239,0.012996,-0.0018814,0,0,0.047022,-0.0019683,0,-0.009783,0,0,0,0.031268,0.012053,0.012996,-5.6497,0.018772,0.018762,3.3634e-07,0.03,0.64,0
0.0018636,-0.00038416,0.031193,0.011906,0.01293,-0.001837,0,0,0.047484,-0.0026607,0,-0.0095522,0,0,0,0.031367,0.011733,0.01293,-5.3957,0.018676,0.019064,3.5116e-07,0.04,0.64,0
0.0023408,-0.00046952,0.031297,0.011567,0.012859,-0.0017919,0,0,0.047939,-0.0033597,0,-0.0093176,0,0,0,0.031459,0.011405,0.012859,-5.1503,0.018575,0.019368,3.6609e-07,0.05,0.64,0
0.0028224,-0.00055036,0.031392,0.011223,0.012785,-0.0017451,0,0,0.04838,-0.00406,0,-0.0090746,0,0,0,0.031542,0.011073,0.012785,-4.9116,0.018467,0.01967,3.8093e-07,0.06,0.64,0
0.0033084,-0.00062651,0.031476,0.010875,0.012705,-0.0016961,0,0,0.048803,-0.0047577,0,-0.0088198,0,0,0,0.031615,0.010736,0.012705,-4.6781,0.018352,0.019967,3.9549e-07,0.07,0.64,0
0.0037984,-0.00069777,0.031545,0.010525,0.012621,-0.0016446,0,0,0.049203,-0.0054507,0,-0.0085518,0,0,0,0.031674,0.010396,0.012621,-4.449,0.01823,0.020257,4.0962e-07,0.08,0.64,0
0.0042924,-0.0007639,0.0316,0.01017,0.012531,-0.0015906,0,0,0.049579,-0.0061386,0,-0.0082713,0,0,0,0.031717,0.010052,0.012531,-4.2243,0.0181,0.020539,4.232e-07,0.09,0.64,0
0.00479,-0.00082469,0.031636,0.0098094,0.012434,-0.0015351,0,0,0.049926,-0.006823,0,-0.0079823,0,0,0,0.031744,0.0097017,0.012434,-4.0054,0.01796,0.020811,4.3615e-07,0.1,0.64,0
0.0052909,-0.0008799,0.031652,0.0094405,0.012328,-0.0014795,0,0,0.050243,-0.007507,0,-0.0076932,0,0,0,0.03175,0.0093422,0.012328,-3.7957,0.017807,0.021075,4.4839e-07,0.11,0.64,0
0.0057949,-0.00092939,0.031645,0.0090597,0.012212,-0.0014264,0,0,0.050528,-0.0081947,0,-0.0074171,0,0,0,0.031735,0.0089699,0.012212,-3.6008,0.017639,0.021331,4.5986e-07,0.12,0.64,0
0.0063015,-0.00097306,0.031612,0.0086629,0.012083,-0.0013791,0,0,0.050777,-0.008891,0,-0.0071715,0,0,0,0.031695,0.0085802,0.012083,-3.4276,0.017453,0.021578,4.705e-07,0.13,0.64,0
0.0068104,-0.001011,0.031549,0.0082441,0.011938,-0.0013423,0,0,0.050989,-0.0096039,0,-0.00698,0,0,0,0.031626,0.0081668,0.011938,-3.2858,0.017244,0.02182,4.8026e-07,0.14,0.64,0
0.0073213,-0.0010433,0.03145,0.0077943,0.011773,-0.0013234,0,0,0.051159,-0.010345,0,-0.0068816,0,0,0,0.031524,0.0077202,0.011773,-3.1912,0.017006,0.022059,4.8911e-07,0.15,0.64,0
0.0078336,-0.0010709,0.031305,0.0073032,0.011582,-0.0013338,0,0,0.051278,-0.011126,0,-0.0069358,0,0,0,0.031379,0.0072288,0.011582,-3.1685,0.01673,0.022295,4.9679e-07,0.16,0.64,0
0.0083468,-0.0010947,0.031099,0.0067705,0.011361,-0.0013885,0,0,0.05132,-0.011935,0,-0.0072202,0,0,0,0.031179,0.0066905,0.011361,-3.2508,0.01641,0.022521,5.0259e-07,0.17,0.64,0
0.00886,-0.0011166,0.030812,0.0061996,0.011104,-0.0014953,0,0,0.051243,-0.01275,0,-0.0077755,0,0,0,0.030905,0.0061071,0.011104,-3.4562,0.016038,0.022716,5.0515e-07,0.18,0.64,0
0.0093717,-0.0011388,0.030462,0.005589,0.010815,-0.0016847,0,0,0.051082,-0.013589,0,-0.0087605,0,0,0,0.030581,0.0054708,0.010815,-3.8449,0.015622,0.022911,5.06e-07,0.19,0.64,0
0.0098817,-0.0011668,0.030155,0.0050824,0.010571,-0.0019249,0,0,0.050917,-0.014271,0,-0.01001,0,0,0,0.030307,0.0049297,0.010571,-4.3523,0.015269,0.023081,5.0663e-07,0.2,0.64,0
0.01039,-0.0012078,0.030299,0.0049496,0.010574,-0.0021006,0,0,0.050123,-0.014297,0,-0.010918,0,0,0,0.030484,0.0047637,0.010574,-4.7604,0.015274,0.023364,5.3249e-07,0.21,0.64,0
0.010887,-0.001264,0.030947,0.0050247,0.010791,-0.0020967,0,0,0.04689,-0.013357,0,-0.010645,0,0,0,0.031154,0.0048178,0.010791,-4.8111,0.015588,0.023916,6.0131e-07,0.22,0.64,0
0.01134,-0.0013355,0.031471,0.0050015,0.010942,-0.0017318,0,0,0.041631,-0.011933,0,-0.0085245,0,0,0,0.031653,0.004819,0.010942,-4.1523,0.015805,0.024358,6.6952e-07,0.23,0.64,0
0.011735,-0.0014243,0.032047,0.005068,0.011134,-0.0010104,0,0,0.038373,-0.011059,0,-0.0053352,0,0,0,0.032165,0.0049503,0.011134,-2.7592,0.016083,0.02471,7.3029e-07,0.24,0.64,0
0.012114,-0.001531,0.032835,0.0051077,0.011383,-0.0001352,0,0,0.03755,-0.010867,0,-0.001959,0,0,0,0.032908,0.0050347,0.011383,-0.90641,0.016442,0.025305,7.8722e-07,0.25,0.64,0
0.012486,-0.0016518,0.033772,0.0048025,0.011572,0.00061349,0,0,0.03577,-0.010712,0,0.00086832,0,0,0,0.033837,0.0047374,0.011572,0.72603,0.016716,0.026358,8.3939e-07,0.26,0.64,0
0.012828,-0.0017796,0.035157,0.0043887,0.011864,0.0010288,0,0,0.033764,-0.010725,0,0.0024103,0,0,0,0.035218,0.0043272,0.011864,1.6036,0.017136,0.027898,9.2822e-07,0.27,0.64,0
0.01316,-0.0019102,0.03632,0.0040233,0.012103,0.0013273,0,0,0.033689,-0.011217,0,0.0034798,0,0,0,0.036385,0.0039581,0.012103,2.2158,0.017482,0.029219,1.0256e-06,0.28,0.64,0
0.013502,-0.0020456,0.036815,0.0035798,0.012118,0.0016819,0,0,0.034419,-0.011901,0,0.0046936,0,0,0,0.036904,0.0034908,0.012118,2.8863,0.017504,0.030044,1.0887e-06,0.29,0.64,0
0.013849,-0.0021918,0.036731,0.0029035,0.01189,0.0021185,0,0,0.034691,-0.012549,0,0.0060747,0,0,0,0.036871,0.0027628,0.01189,3.6336,0.017175,0.030586,1.1095e-06,0.3,0.64,0
0.014194,-0.0023504,0.036045,0.0016546,0.01131,0.0025676,0,0,0.034617,-0.013452,0,0.0075389,0,0,0,0.036253,0.0014461,0.01131,4.3859,0.016336,0.031077,1.0912e-06,0.31,0.64,0
0.014534,-0.0025093,0.035235,0.00032341,0.010668,0.003035,0,0,0.034444,-0.014391,0,0.0089722,0,0,0,0.035526,3.211e-05,0.010668,5.1099,0.015409,0.031555,1.0659e-06,0.32,0.64,0
0.014873,-0.0026576,0.034838,-0.00041376,0.010327,0.0036113,0,0,0.033755,-0.014689,0,0.010187,0,0,0,0.035229,-0.00080498,0.010327,5.8873,0.014917,0.031959,1.0528e-06,0.33,0.64,0
0.015203,-0.0027954,0.03467,-0.0008888,0.010134,0.0039882,0,0,0.032526,-0.014571,0,0.010608,0,0,0,0.035122,-0.0013409,0.010134,6.3482,0.014638,0.032293,1.0364e-06,0.34,0.64,0
0.015522,-0.0029197,0.034313,-0.0011174,0.0099586,0.0040708,0,0,0.03166,-0.014399,0,0.010584,0,0,0,0.034779,-0.0015837,0.0099586,6.484,0.014385,0.032183,1.0019e-06,0.35,0.64,0
0.015836,-0.0030321,0.033976,-0.0011297,0.0098538,0.0040211,0,0,0.031358,-0.014279,0,0.010455,0,0,0,0.034432,-0.0015859,0.0098538,6.456,0.014233,0.031877,9.7145e-07,0.36,0.64,0
0.016149,-0.0031397,0.033897,-0.0012172,0.0098039,0.0039069,0,0,0.031321,-0.014327,0,0.010158,0,0,0,0.034327,-0.0016472,0.0098039,6.2734,0.014161,0.031833,9.6358e-07,0.37,0.64,0
0.016463,-0.0032456,0.033999,-0.0013682,0.0097891,0.0037959,0,0,0.031472,-0.014505,0,0.0098693,0,0,0,0.034402,-0.0017717,0.0097891,6.0574,0.01414,0.032,9.7278e-07,0.38,0.64,0
0.016778,-0.0033519,0.034233,-0.0015757,0.0097972,0.0036857,0,0,0.031767,-0.014785,0,0.0095829,0,0,0,0.03461,-0.0019526,0.0097972,5.8163,0.014152,0.032331,9.9485e-07,0.39,0.64,0
0.017098,-0.0034607,0.034591,-0.0018261,0.0098295,0.0035462,0,0,0.03219,-0.015152,0,0.00922,0,0,0,0.034936,-0.0021711,0.0098295,5.5113,0.014198,0.032797,1.0285e-06,0.4,0.64,0
0.017422,-0.0035744,0.035059,-0.0020899,0.0098908,0.0033248,0,0,0.032719,-0.015575,0,0.0086446,0,0,0,0.035359,-0.0023901,0.0098908,5.0752,0.014287,0.033351,1.0714e-06,0.41,0.64,0
0.017752,-0.003696,0.03558,-0.0022737,0.0099918,0.0029675,0,0,0.033264,-0.015945,0,0.0077156,0,0,0,0.035818,-0.002512,0.0099918,4.4534,0.014433,0.033857,1.116e-06,0.42,0.64,0
0.018088,-0.0038283,0.036094,-0.0021444,0.010185,0.0024877,0,0,0.033682,-0.016028,0,0.0064681,0,0,0,0.036262,-0.0023125,0.010185,3.6988,0.014712,0.03409,1.1514e-06,0.43,0.64,0
0.018426,-0.0039707,0.036574,-0.001559,0.010505,0.0020202,0,0,0.033891,-0.015683,0,0.0052525,0,0,0,0.036685,-0.0016701,0.010505,3.014,0.015173,0.033948,1.1727e-06,0.44,0.64,0
0.018765,-0.0041189,0.036974,-0.00076913,0.010862,0.0017024,0,0,0.033947,-0.01512,0,0.0044264,0,0,0,0.037053,-0.00084781,0.010862,2.5701,0.015689,0.033613,1.1826e-06,0.45,0.64,0
0.019105,-0.004267,0.037281,-9.255e-05,0.011157,0.00154,0,0,0.033962,-0.014624,0,0.0040039,0,0,0,0.037345,-0.00015694,0.011157,2.3509,0.016115,0.033319,1.1881e-06,0.46,0.64,0
0.019445,-0.0044106,0.037535,0.00040703,0.011383,0.0014766,0,0,0.033998,-0.014268,0,0.0038391,0,0,0,0.037594,0.00034791,0.011383,2.2711,0.016442,0.033137,1.1945e-06,0.47,0.64,0
0.019785,-0.0045483,0.037766,0.00074376,0.011553,0.0014687,0,0,0.034077,-0.014052,0,0.0038186,0,0,0,0.037825,0.00068524,0.011553,2.2663,0.016688,0.033073,1.2047e-06,0.48,0.64,0
0.020126,-0.00468,0.037987,0.0009133,0.01167,0.0014624,0,0,0.034212,-0.013984,0,0.0038023,0,0,0,0.038045,0.00085533,0.01167,2.2536,0.016857,0.033134,1.2198e-06,0.49,0.64,0
0.020469,-0.0048082,0.038156,0.0010741,0.011769,0.0014428,0,0,0.034303,-0.013903,0,0.0037513,0,0,0,0.038213,0.0010174,0.011769,2.2218,0.017,0.033154,1.2303e-06,0.5,0.64,0
0.020812,-0.0049329,0.038208,0.001392,0.01188,0.0014533,0,0,0.034226,-0.013634,0,0.0037785,0,0,0,0.038266,0.0013336,0.01188,2.2548,0.01716,0.032951,1.2234e-06,0.51,0.64,0
0.021154,-0.0050486,0.038112,0.0015078,0.011886,0.001494,0,0,0.034094,-0.013492,0,0.0038845,0,0,0,0.038176,0.0014444,0.011886,2.3324,0.017169,0.032783,1.2101e-06,0.52,0.64,0
0.021494,-0.0051532,0.0375,0.0010913,0.011577,0.0014925,0,0,0.03433,-0.013903,0,0.00379,0,0,0,0.037571,0.00102,0.011577,2.2771,0.016723,0.032583,1.184e-06,0.53,0.64,0
0.021839,-0.0052543,0.036276,0.00069724,0.011092,0.0012841,0,0,0.036177,-0.014934,0,0.0030245,0,0,0,0.036352,0.00062213,0.011092,1.8633,0.016022,0.031815,1.1345e-06,0.54,0.64,0
0.022214,-0.0053487,0.035383,0.00063336,0.010805,0.00065684,0,0,0.040094,-0.016751,0,0.00077429,0,0,0,0.035454,0.00056251,0.010805,0.772,0.015607,0.031068,1.1181e-06,0.55,0.64,0
0.022637,-0.0054153,0.035173,0.00014992,0.010597,-0.00029692,0,0,0.044695,-0.019369,0,-0.0028215,0,0,0,0.035245,7.7228e-05,0.010597,-0.82082,0.015306,0.031276,1.1474e-06,0.56,0.64,0
0.023114,-0.0054365,0.034987,-0.00067745,0.010293,-0.0010987,0,0,0.050338,-0.022549,0,-0.005922,0,0,0,0.035067,-0.0007568,0.010293,-2.0186,0.014868,0.03178,1.1351e-06,0.57,0.64,0
0.023662,-0.005409,0.034337,-0.00093079,0.010022,-0.0013488,0,0,0.05662,-0.025487,0,-0.0069057,0,0,0,0.034406,-0.00099965,0.010022,-2.2928,0.014476,0.031382,1.027e-06,0.58,0.64,0
0.024262,-0.0053472,0.033515,-0.00060577,0.0098726,-0.0010922,0,0,0.060084,-0.026629,0,-0.0056511,0,0,0,0.033555,-0.00064642,0.0098726,-1.8399,0.01426,0.030342,8.9568e-07,0.59,0.64,0
0.024868,-0.0052733,0.033235,-3.9493e-05,0.0099587,-0.00071654,0,0,0.060519,-0.025995,0,-0.003726,0,0,0,0.033252,-5.6805e-05,0.0099587,-1.2242,0.014385,0.029602,8.3713e-07,0.6,0.64,0
0.025472,-0.0051998,0.033369,0.00054086,0.010173,-0.00048484,0,0,0.06031,-0.025044,0,-0.0025212,0,0,0,0.033377,0.00053315,0.010173,-0.8424,0.014694,0.029241,8.2982e-07,0.61,0.64,0
0.026074,-0.0051312,0.033494,0.00093499,0.010329,-0.00038098,0,0,0.06023,-0.024424,0,-0.0019811,0,0,0,0.033499,0.00093026,0.010329,-0.66815,0.014919,0.029034,8.2761e-07,0.62,0.64,0
0.026677,-0.0050698,0.033606,0.0011795,0.010436,-0.00034001,0,0,0.060243,-0.024066,0,-0.0017681,0,0,0,0.03361,0.0011757,0.010436,-0.59926,0.015074,0.028938,8.2872e-07,0.63,0.64,0
0.027279,-0.0050161,0.033718,0.0013358,0.010516,-0.00033732,0,0,0.060325,-0.023869,0,-0.001754,0,0,0,0.033722,0.0013321,0.010516,-0.59571,0.01519,0.028913,8.3244e-07,0.64,0.64,0
0.027883,-0.0049702,0.033825,0.0014149,0.010572,-0.00036263,0,0,0.060457,-0.023808,0,-0.0018857,0,0,0,0.033829,0.0014107,0.010572,-0.64008,0.01527,0.028946,8.381e-07,0.65,0.64,0
0.028488,-0.004932,0.033928,0.0014226,0.010605,-0.00040367,0,0,0.06064,-0.023875,0,-0.0020991,0,0,0,0.033934,0.0014174,0.010605,-0.71052,0.015319,0.029034,8.4581e-07,0.66,0.64,0
0.029096,-0.0049011,0.034033,0.0013731,0.010622,-0.00044816,0,0,0.060869,-0.024047,0,-0.0023304,0,0,0,0.034039,0.0013668,0.010622,-0.78519,0.015343,0.029168,8.5538e-07,0.67,0.64,0
0.029706,-0.0048769,0.034136,0.0012817,0.010625,-0.00048784,0,0,0.061128,-0.024293,0,-0.0025368,0,0,0,0.034144,0.0012743,0.010625,-0.84976,0.015348,0.029334,8.6621e-07,0.68,0.64,0
0.030318,-0.0048587,0.034236,0.0011617,0.010619,-0.00051874,0,0,0.061403,-0.024589,0,-0.0026974,0,0,0,0.034244,0.0011534,0.010619,-0.89772,0.015339,0.029519,8.7765e-07,0.69,0.64,0
0.030934,-0.0048457,0.034328,0.0010233,0.010605,-0.00053961,0,0,0.061679,-0.024914,0,-0.002806,0,0,0,0.034337,0.0010145,0.010605,-0.92749,0.015319,0.029712,8.8915e-07,0.7,0.64,0
0.031552,-0.0048371,0.034412,0.00087446,0.010586,-0.00055065,0,0,0.061948,-0.02525,0,-0.0028634,0,0,0,0.034422,0.00086534,0.010586,-0.94001,0.015291,0.029905,9.0032e-07,0.71,0.64,0
0.032173,-0.0048321,0.034487,0.00072096,0.010562,-0.00055278,0,0,0.062204,-0.025588,0,-0.0028745,0,0,0,0.034496,0.00071184,0.010562,-0.93738,0.015257,0.030094,9.1089e-07,0.72,0.64,0
0.032796,-0.0048302,0.034552,0.00056714,0.010536,-0.00054723,0,0,0.062443,-0.025919,0,-0.0028456,0,0,0,0.034561,0.00055828,0.010536,-0.92208,0.015218,0.030273,9.207e-07,0.73,0.64,0
0.033422,-0.0048307,0.034608,0.00041612,0.010507,-0.00053529,0,0,0.062662,-0.026237,0,-0.0027835,0,0,0,0.034616,0.0004077,0.010507,-0.8966,0.015177,0.030442,9.2964e-07,0.74,0.64,0
0.034049,-0.0048332,0.034654,0.00027006,0.010477,-0.00051823,0,0,0.06286,-0.026539,0,-0.0026948,0,0,0,0.034662,0.00026222,0.010477,-0.86324,0.015134,0.030599,9.3769e-07,0.75,0.64,0
0.034679,-0.0048372,0.034692,0.00013045,0.010447,-0.00049721,0,0,0.063038,-0.026823,0,-0.0025855,0,0,0,0.034699,0.00012327,0.010447,-0.82402,0.01509,0.030743,9.4485e-07,0.76,0.64,0
0.03531,-0.0048424,0.034723,-1.781e-06,0.010416,-0.00047323,0,0,0.063196,-0.027087,0,-0.0024608,0,0,0,0.034729,-8.249e-06,0.010416,-0.78067,0.015046,0.030874,9.5113e-07,0.77,0.64,0
0.035943,-0.0048484,0.034746,-0.00012608,0.010386,-0.0004472,0,0,0.063335,-0.027331,0,-0.0023254,0,0,0,0.034751,-0.00013183,0.010386,-0.73465,0.015002,0.030993,9.5659e-07,0.78,0.64,0
0.036577,-0.004855,0.034763,-0.00024218,0.010356,-0.00041985,0,0,0.063457,-0.027556,0,-0.0021832,0,0,0,0.034768,-0.00024723,0.010356,-0.68713,0.014959,0.0311,9.6129e-07,0.79,0.64,0
0.037212,-0.004862,0.034774,-0.00035003,0.010327,-0.00039182,0,0,0.063562,-0.027761,0,-0.0020374,0,0,0,0.034778,-0.00035442,0.010327,-0.6391,0.014917,0.031195,9.6527e-07,0.8,0.64,0
0.037848,-0.0048692,0.034781,-0.00044975,0.010299,-0.0003636,0,0,0.063652,-0.027947,0,-0.0018907,0,0,0,0.034784,-0.00045352,0.010299,-0.59131,0.014877,0.03128,9.6862e-07,0.81,0.64,0
0.038485,-0.0048765,0.034783,-0.00054155,0.010272,-0.00033563,0,0,0.063728,-0.028117,0,-0.0017453,0,0,0,0.034786,-0.00054475,0.010272,-0.54437,0.014838,0.031355,9.714e-07,0.82,0.64,0
0.039123,-0.0048836,0.034782,-0.0006257,0.010247,-0.00030821,0,0,0.063792,-0.028269,0,-0.0016027,0,0,0,0.034785,-0.0006284,0.010247,-0.49874,0.014801,0.031421,9.7366e-07,0.83,0.64,0
0.039761,-0.0048906,0.034779,-0.00070255,0.010223,-0.00028161,0,0,0.063845,-0.028406,0,-0.0014644,0,0,0,0.034781,-0.00070479,0.010223,-0.45476,0.014766,0.031478,9.7548e-07,0.84,0.64,0
0.0404,-0.0048974,0.034773,-0.00077245,0.0102,-0.000256,0,0,0.063889,-0.028529,0,-0.0013312,0,0,0,0.034775,-0.0007743,0.0102,-0.41268,0.014733,0.031528,9.769e-07,0.85,0.64,0
0.041039,-0.0049038,0.034765,-0.00083578,0.010179,-0.00023153,0,0,0.063924,-0.028638,0,-0.001204,0,0,0,0.034767,-0.00083729,0.010179,-0.37264,0.014703,0.031572,9.78e-07,0.86,0.64,0
0.041678,-0.0049099,0.034756,-0.00089291,0.010159,-0.00020826,0,0,0.063953,-0.028735,0,-0.001083,0,0,0,0.034757,-0.00089413,0.010159,-0.33475,0.014674,0.031609,9.7881e-07,0.87,0.64,0
0.042318,-0.0049156,0.034746,-0.00094421,0.010141,-0.00018625,0,0,0.063975,-0.028821,0,-0.0009685,0,0,0,0.034747,-0.00094519,0.010141,-0.29902,0.014648,0.031641,9.7938e-07,0.88,0.64,0
0.042958,-0.0049209,0.034736,-0.00099002,0.010124,-0.00016549,0,0,0.063992,-0.028896,0,-0.00086056,0,0,0,0.034737,-0.0009908,0.010124,-0.26543,0.014623,0.031668,9.7977e-07,0.89,0.64,0
0.043598,-0.0049257,0.034725,-0.0010307,0.010108,-0.00014597,0,0,0.064004,-0.028962,0,-0.00075904,0,0,0,0.034726,-0.0010313,0.010108,-0.23392,0.014601,0.031692,9.7999e-07,0.9,0.64,0
0.044238,-0.0049301,0.034715,-0.0010665,0.010095,-0.00012763,0,0,0.064014,-0.029019,0,-0.00066368,0,0,0,0.034716,-0.001067,0.010095,-0.20438,0.014581,0.031711,9.801e-07,0.91,0.64,0
0.044878,-0.004934,0.034705,-0.0010978,0.010082,-0.00011041,0,0,0.06402,-0.029068,0,-0.00057412,0,0,0,0.034706,-0.0010981,0.010082,-0.1767,0.014563,0.031727,9.8011e-07,0.92,0.64,0
0.045518,-0.0049375,0.034696,-0.0011248,0.010071,-9.4216e-05,0,0,0.064024,-0.02911,0,-0.00048992,0,0,0,0.034696,-0.001125,0.010071,-0.15071,0.014548,0.031741,9.8007e-07,0.93,0.64,0
0.046158,-0.0049405,0.034688,-0.0011477,0.010062,-7.8953e-05,0,0,0.064027,-0.029145,0,-0.00041056,0,0,0,0.034688,-0.0011479,0.010062,-0.12624,0.014534,0.031751,9.7998e-07,0.94,0.64,0
0.046799,-0.004943,0.03468,-0.0011667,0.010054,-6.4507e-05,0,0,0.064028,-0.029174,0,-0.00033543,0,0,0,0.03468,-0.0011669,0.010054,-0.10311,0.014523,0.03176,9.7987e-07,0.95,0.64,0
0.047439,-0.0049451,0.034674,-0.0011821,0.010048,-5.0754e-05,0,0,0.064029,-0.029197,0,-0.00026392,0,0,0,0.034674,-0.0011822,0.010048,-0.081106,0.014513,0.031767,9.7976e-07,0.96,0.64,0
0.048079,-0.0049467,0.034669,-0.0011939,0.010043,-3.7565e-05,0,0,0.064029,-0.029215,0,-0.00019534,0,0,0,0.034669,-0.0011939,0.010043,-0.060018,0.014506,0.031772,9.7966e-07,0.97,0.64,0
0.048719,-0.0049478,0.034666,-0.0012022,0.010039,-2.4803e-05,0,0,0.064029,-0.029227,0,-0.00012898,0,0,0,0.034666,-0.0012023,0.010039,-0.039624,0.014501,0.031775,9.7959e-07,0.98,0.64,0
0.04936,-0.0049485,0.034663,-0.0012072,0.010037,-1.3428e-05,0,0,0.064029,-0.029235,0,-6.9827e-05,0,0,0,0.034663,-0.0012072,0.010037,-0.02145,0.014498,0.031777,9.7954e-07,0.99,0.64,0
0.04968,-0.0049487,0.034663,-0.0012089,0.010036,-8.344e-06,0,0,0.064029,-0.029237,0,-4.3389e-05,0,0,0,0.034663,-0.0012089,0.010036,-0.013328,0.014497,0.031778,9.7952e-07,1,0.64,0
0.00022849,-5.4543e-05,0.030744,0.013006,0.013125,-0.0020941,0,0,0.04581,-0.00030905,0,-0.010889,0,0,0,0.030989,0.012762,0.013125,-6.6433,0.018959,0.018048,3.015e-07,0,0.65,0
0.0004581,-0.00010807,0.030766,0.012841,0.013082,-0.0020806,0,0,0.045979,-0.00062742,0,-0.010819,0,0,0,0.031005,0.012602,0.013082,-6.5369,0.018896,0.018168,3.0728e-07,0.01,0.65,0
0.00091957,-0.00021307,0.030846,0.012516,0.013009,-0.0020436,0,0,0.046376,-0.0012797,0,-0.010627,0,0,0,0.031072,0.012291,0.013009,-6.2884,0.01879,0.018433,3.2003e-07,0.02,0.65,0
0.0013856,-0.00031396,0.03096,0.012193,0.012946,-0.0019956,0,0,0.046836,-0.0019577,0,-0.010377,0,0,0,0.03117,0.011982,0.012946,-6.0065,0.018699,0.018725,3.3422e-07,0.03,0.65,0
0.0018563,-0.00041064,0.031069,0.011858,0.012878,-0.0019454,0,0,0.047296,-0.0026516,0,-0.010116,0,0,0,0.031265,0.011663,0.012878,-5.7279,0.018602,0.019024,3.4875e-07,0.04,0.65,0
0.0023315,-0.000503,0.031171,0.011516,0.012806,-0.0018919,0,0,0.047749,-0.0033535,0,-0.0098381,0,0,0,0.031352,0.011335,0.012806,-5.4516,0.018498,0.019324,3.6337e-07,0.05,0.65,0
0.0028113,-0.00059084,0.031263,0.011169,0.01273,-0.0018345,0,0,0.048187,-0.0040576,0,-0.0095394,0,0,0,0.03143,0.011003,0.01273,-5.1767,0.018387,0.019621,3.7786e-07,0.06,0.65,0
0.0032953,-0.00067397,0.031344,0.010818,0.012648,-0.0017726,0,0,0.048607,-0.0047594,0,-0.0092174,0,0,0,0.031496,0.010666,0.012648,-4.9024,0.01827,0.019914,3.9204e-07,0.07,0.65,0
0.0037834,-0.00075216,0.031409,0.010463,0.012562,-0.001706,0,0,0.049004,-0.005456,0,-0.0088713,0,0,0,0.031548,0.010325,0.012562,-4.6286,0.018145,0.020198,4.0574e-07,0.08,0.65,0
0.0042754,-0.00082516,0.031459,0.010105,0.012469,-0.001635,0,0,0.049373,-0.0061462,0,-0.0085019,0,0,0,0.031583,0.0099805,0.012469,-4.3556,0.018011,0.020473,4.1882e-07,0.09,0.65,0
0.0047709,-0.00089277,0.031489,0.0097424,0.012369,-0.0015602,0,0,0.049711,-0.0068301,0,-0.008113,0,0,0,0.031601,0.0096308,0.012369,-4.085,0.017867,0.020737,4.3115e-07,0.1,0.65,0
0.0052696,-0.00095477,0.031498,0.0093732,0.012261,-0.0014829,0,0,0.050015,-0.0075092,0,-0.0077111,0,0,0,0.031597,0.009274,0.012261,-3.8195,0.017711,0.02099,4.4266e-07,0.11,0.65,0
0.0057712,-0.001011,0.031483,0.0089948,0.012143,-0.0014051,0,0,0.050282,-0.0081859,0,-0.0073067,0,0,0,0.03157,0.0089071,0.012143,-3.5634,0.01754,0.021231,4.5323e-07,0.12,0.65,0
0.0062752,-0.0010615,0.03144,0.0086039,0.012013,-0.0013297,0,0,0.05051,-0.0088642,0,-0.0069144,0,0,0,0.031517,0.0085265,0.012013,-3.3226,0.017352,0.021462,4.628e-07,0.13,0.65,0
0.0067814,-0.0011064,0.031367,0.0081958,0.011869,-0.0012607,0,0,0.050695,-0.0095497,0,-0.0065557,0,0,0,0.031435,0.0081271,0.011869,-3.1062,0.017144,0.021681,4.7128e-07,0.14,0.65,0
0.0072891,-0.0011459,0.031257,0.0077649,0.011707,-0.0012043,0,0,0.050832,-0.010249,0,-0.0062623,0,0,0,0.031319,0.0077029,0.011707,-2.9272,0.01691,0.021891,4.7855e-07,0.15,0.65,0
0.007798,-0.0011808,0.031105,0.0073073,0.011524,-0.0011687,0,0,0.050912,-0.010963,0,-0.0060772,0,0,0,0.031163,0.0072494,0.011524,-2.8041,0.016646,0.02209,4.8437e-07,0.16,0.65,0
0.0083074,-0.0012122,0.030904,0.0068221,0.011318,-0.001163,0,0,0.050925,-0.011689,0,-0.0060474,0,0,0,0.030961,0.006765,0.011318,-2.7565,0.016348,0.022272,4.8835e-07,0.17,0.65,0
0.0088165,-0.0012416,0.030656,0.0063147,0.011091,-0.0011996,0,0,0.050868,-0.012419,0,-0.006238,0,0,0,0.030716,0.0062541,0.011091,-2.8113,0.016021,0.022439,4.9047e-07,0.18,0.65,0
0.0093247,-0.0012719,0.030343,0.0057738,0.010835,-0.0012994,0,0,0.050721,-0.013159,0,-0.006757,0,0,0,0.030414,0.0057027,0.010835,-3.0128,0.015651,0.022588,4.9032e-07,0.19,0.65,0
0.0098309,-0.0013073,0.029919,0.005252,0.010551,-0.0014835,0,0,0.050357,-0.013779,0,-0.0077143,0,0,0,0.030013,0.0051584,0.010551,-3.4199,0.015241,0.022646,4.8431e-07,0.2,0.65,0
0.010332,-0.0013512,0.029386,0.0048902,0.010283,-0.0017277,0,0,0.049668,-0.014021,0,-0.008984,0,0,0,0.029516,0.0047606,0.010283,-3.9995,0.014853,0.022508,4.6946e-07,0.21,0.65,0
0.010824,-0.0014026,0.029059,0.0047029,0.010128,-0.0019555,0,0,0.048128,-0.013771,0,-0.010008,0,0,0,0.029228,0.0045331,0.010128,-4.5695,0.01463,0.022428,4.6984e-07,0.22,0.65,0
0.011298,-0.001463,0.02888,0.0046014,0.010044,-0.0019696,0,0,0.045672,-0.013167,0,-0.0098792,0,0,0,0.02906,0.0044217,0.010044,-4.723,0.014509,0.022364,4.863e-07,0.23,0.65,0
0.011745,-0.0015427,0.028568,0.0046145,0.0099547,-0.0016344,0,0,0.043868,-0.012582,0,-0.0083106,0,0,0,0.028707,0.0044758,0.0099547,-4.1289,0.014379,0.02201,4.8971e-07,0.24,0.65,0
0.012179,-0.0016453,0.028761,0.0046146,0.010013,-0.0011069,0,0,0.042157,-0.012045,0,-0.0060048,0,0,0,0.028854,0.0045212,0.010013,-3.012,0.014463,0.022106,5.1262e-07,0.25,0.65,0
0.012592,-0.0017616,0.0295,0.0043651,0.01016,-0.00055213,0,0,0.038846,-0.011418,0,-0.0035439,0,0,0,0.029568,0.0042974,0.01016,-1.781,0.014675,0.022911,5.7301e-07,0.26,0.65,0
0.012964,-0.0018876,0.030191,0.0039951,0.010256,-2.0214e-06,0,0,0.036276,-0.01122,0,-0.0010584,0,0,0,0.030231,0.0039543,0.010256,-0.50024,0.014814,0.023763,6.4502e-07,0.27,0.65,0
0.013322,-0.002024,0.030943,0.003614,0.010367,0.00058487,0,0,0.036362,-0.011842,0,0.0015461,0,0,0,0.030974,0.0035824,0.010367,0.94245,0.014975,0.024709,7.2641e-07,0.28,0.65,0
0.013692,-0.0021685,0.031701,0.0031514,0.010456,0.0012375,0,0,0.037512,-0.012882,0,0.0042975,0,0,0,0.031765,0.0030872,0.010456,2.4288,0.015103,0.025796,8.0704e-07,0.29,0.65,0
0.014072,-0.0023214,0.032023,0.0024476,0.010341,0.0020154,0,0,0.037633,-0.013693,0,0.007118,0,0,0,0.032175,0.0022959,0.010341,3.9463,0.014937,0.026781,8.4884e-07,0.3,0.65,0
0.014442,-0.0024881,0.031644,0.001209,0.0098559,0.0028415,0,0,0.036402,-0.014314,0,0.0098964,0,0,0,0.031934,0.00091956,0.0098559,5.475,0.014236,0.027657,8.4189e-07,0.31,0.65,0
0.014791,-0.0026563,0.030875,1.0784e-05,0.0092657,0.0034714,0,0,0.035357,-0.014905,0,0.012034,0,0,0,0.031296,-0.00040994,0.0092657,6.6256,0.013384,0.028149,8.1813e-07,0.32,0.65,0
0.015132,-0.0028061,0.030896,-0.00058812,0.0090925,0.0039152,0,0,0.033759,-0.014755,0,0.012478,0,0,0,0.031397,-0.0010882,0.0090925,7.1472,0.013134,0.028781,8.1697e-07,0.33,0.65,0
0.01545,-0.0029397,0.031909,-0.00095678,0.0092855,0.0041626,0,0,0.031218,-0.01404,0,0.011539,0,0,0,0.032432,-0.00148,0.0092855,7.1377,0.013412,0.030015,8.4796e-07,0.34,0.65,0
0.01575,-0.003061,0.032626,-0.0010756,0.0094653,0.0041166,0,0,0.03011,-0.013703,0,0.010703,0,0,0,0.033125,-0.0015736,0.0094653,6.8642,0.013672,0.030705,8.7098e-07,0.35,0.65,0
0.016052,-0.0031727,0.032923,-0.0010286,0.0095682,0.0039092,0,0,0.030361,-0.013776,0,0.010164,0,0,0,0.033369,-0.0014752,0.0095682,6.4796,0.013821,0.030843,8.8393e-07,0.36,0.65,0
0.016357,-0.0032815,0.033287,-0.0011054,0.0096544,0.0036987,0,0,0.030722,-0.013988,0,0.0096166,0,0,0,0.033682,-0.0015008,0.0096544,6.0659,0.013945,0.031142,9.0793e-07,0.37,0.65,0
0.016666,-0.0033898,0.033675,-0.0012565,0.0097256,0.0035144,0,0,0.031134,-0.014277,0,0.0091375,0,0,0,0.034027,-0.0016089,0.0097256,5.6862,0.014048,0.031536,9.3803e-07,0.38,0.65,0
0.01698,-0.0034993,0.034094,-0.0014498,0.0097933,0.0033291,0,0,0.031591,-0.014616,0,0.0086556,0,0,0,0.034406,-0.0017619,0.0097933,5.3035,0.014146,0.031996,9.7301e-07,0.39,0.65,0
0.017298,-0.0036118,0.034547,-0.0016551,0.0098677,0.0031074,0,0,0.032084,-0.01498,0,0.0080793,0,0,0,0.034816,-0.0019237,0.0098677,4.8694,0.014253,0.032491,1.0118e-06,0.4,0.65,0
0.017621,-0.0037293,0.035019,-0.0018231,0.0099588,0.0028145,0,0,0.032579,-0.015317,0,0.0073178,0,0,0,0.035238,-0.0020416,0.0099588,4.3417,0.014385,0.032961,1.0515e-06,0.41,0.65,0
0.01795,-0.0038536,0.035476,-0.0018601,0.010085,0.0024375,0,0,0.033008,-0.015528,0,0.0063374,0,0,0,0.035639,-0.0020236,0.010085,3.7157,0.014567,0.033303,1.0867e-06,0.42,0.65,0
0.018282,-0.0039858,0.035887,-0.0016518,0.01027,0.0020174,0,0,0.033301,-0.015499,0,0.0052451,0,0,0,0.035999,-0.0017639,0.01027,3.0614,0.014835,0.033413,1.1119e-06,0.43,0.65,0
0.018616,-0.0041249,0.036237,-0.001176,0.010518,0.0016446,0,0,0.033434,-0.015203,0,0.0042761,0,0,0,0.036311,-0.0012506,0.010518,2.5061,0.015193,0.033277,1.1255e-06,0.44,0.65,0
0.01895,-0.0042681,0.036525,-0.00056596,0.010788,0.001396,0,0,0.033459,-0.01476,0,0.0036295,0,0,0,0.036579,-0.00061952,0.010788,2.1481,0.015582,0.033008,1.1309e-06,0.45,0.65,0
0.019285,-0.0044114,0.036771,1.7589e-06,0.011032,0.0012816,0,0,0.033461,-0.014339,0,0.0033321,0,0,0,0.036816,-4.3512e-05,0.011032,1.9912,0.015935,0.032758,1.1344e-06,0.46,0.65,0
0.01962,-0.0045518,0.037002,0.00043549,0.011231,0.0012578,0,0,0.033502,-0.014034,0,0.0032704,0,0,0,0.037046,0.00039166,0.011231,1.9657,0.016223,0.032615,1.1411e-06,0.47,0.65,0
0.019955,-0.0046877,0.03723,0.00072306,0.011386,0.0012689,0,0,0.033598,-0.013862,0,0.0032992,0,0,0,0.037275,0.00067842,0.011386,1.9862,0.016446,0.03259,1.1527e-06,0.48,0.65,0
0.020291,-0.0048189,0.037426,0.00089796,0.011497,0.001271,0,0,0.033708,-0.013779,0,0.0033045,0,0,0,0.037471,0.00085331,0.011497,1.9882,0.016607,0.032625,1.1649e-06,0.49,0.65,0
0.020629,-0.0049459,0.037575,0.0010929,0.0116,0.0012676,0,0,0.033767,-0.01366,0,0.0032958,0,0,0,0.037619,0.0010486,0.0116,1.9862,0.016756,0.032601,1.1717e-06,0.5,0.65,0
0.020967,-0.0050678,0.037725,0.0013764,0.01173,0.0013352,0,0,0.033793,-0.01346,0,0.0034714,0,0,0,0.037775,0.0013269,0.01173,2.1006,0.016944,0.032519,1.176e-06,0.51,0.65,0
0.021305,-0.0051825,0.03791,0.0014806,0.011817,0.0014956,0,0,0.033921,-0.013438,0,0.0038885,0,0,0,0.037972,0.0014184,0.011817,2.3457,0.017069,0.032622,1.1914e-06,0.52,0.65,0
0.021645,-0.0052904,0.038117,0.0012558,0.011812,0.0016144,0,0,0.034196,-0.013723,0,0.0041974,0,0,0,0.038188,0.0011841,0.011812,2.5021,0.017061,0.033,1.2212e-06,0.53,0.65,0
0.021989,-0.0053966,0.037968,0.0011171,0.011726,0.0016061,0,0,0.034797,-0.014059,0,0.0041923,0,0,0,0.038041,0.0010446,0.011726,2.4662,0.016937,0.03298,1.2264e-06,0.54,0.65,0
0.022339,-0.0054998,0.037481,0.001124,0.011581,0.0013684,0,0,0.035706,-0.014493,0,0.0034339,0,0,0,0.037547,0.0010575,0.011581,2.0501,0.016729,0.032533,1.2131e-06,0.55,0.65,0
0.022699,-0.0055868,0.036782,0.00060407,0.011216,0.0008196,0,0,0.037532,-0.015789,0,0.0015337,0,0,0,0.036839,0.00054631,0.011216,1.0997,0.0162,0.032314,1.207e-06,0.56,0.65,0
0.023088,-0.0056454,0.03614,-0.00025898,0.010764,8.4665e-05,0,0,0.042674,-0.018681,0,-0.0011086,0,0,0,0.036195,-0.0003137,0.010764,-0.074353,0.015549,0.032425,1.2167e-06,0.57,0.65,0
0.023559,-0.0056605,0.036115,-0.00071438,0.01062,-0.000621,0,0,0.051195,-0.022777,0,-0.0037726,0,0,0,0.036167,-0.00076599,0.01062,-1.109,0.01534,0.032759,1.2302e-06,0.58,0.65,0
0.02413,-0.005619,0.035637,-0.00071067,0.010478,-0.00092364,0,0,0.058654,-0.026069,0,-0.0048816,0,0,0,0.035675,-0.0007485,0.010478,-1.5313,0.015135,0.032308,1.1314e-06,0.59,0.65,0
0.024748,-0.0055392,0.034582,-0.00025138,0.010299,-0.00077221,0,0,0.061725,-0.026791,0,-0.0040233,0,0,0,0.034602,-0.00027141,0.010299,-1.2825,0.014877,0.030973,9.6887e-07,0.6,0.65,0
0.025369,-0.005454,0.034132,0.00041236,0.010363,-0.00055595,0,0,0.061798,-0.025872,0,-0.0028909,0,0,0,0.034141,0.00040283,0.010363,-0.94163,0.014969,0.030025,8.9282e-07,0.61,0.65,0
0.025984,-0.0053781,0.034117,0.00086653,0.010495,-0.00044425,0,0,0.061417,-0.025034,0,-0.0023101,0,0,0,0.034123,0.00086048,0.010495,-0.76492,0.015159,0.029644,8.7752e-07,0.62,0.65,0
0.026597,-0.0053125,0.034141,0.0011599,0.01059,-0.00039706,0,0,0.061232,-0.024519,0,-0.0020647,0,0,0,0.034146,0.0011551,0.01059,-0.68961,0.015297,0.02943,8.7031e-07,0.63,0.65,0
0.027209,-0.0052562,0.034169,0.0013678,0.010661,-0.00039804,0,0,0.061121,-0.024162,0,-0.0020698,0,0,0,0.034174,0.0013629,0.010661,-0.69509,0.015399,0.029291,8.6602e-07,0.64,0.65,0
0.02782,-0.0052092,0.034202,0.0014687,0.010701,-0.0004363,0,0,0.061102,-0.024005,0,-0.0022688,0,0,0,0.034208,0.0014628,0.010701,-0.76315,0.015457,0.029242,8.6552e-07,0.65,0.65,0
0.028431,-0.0051714,0.034255,0.0014779,0.01072,-0.00048927,0,0,0.06119,-0.024029,0,-0.0025442,0,0,0,0.034262,0.0014705,0.01072,-0.85441,0.015484,0.029284,8.694e-07,0.66,0.65,0
0.029043,-0.0051422,0.034323,0.0014202,0.010723,-0.00053928,0,0,0.061359,-0.024187,0,-0.0028042,0,0,0,0.034332,0.0014113,0.010723,-0.93807,0.015489,0.029392,8.7662e-07,0.67,0.65,0
0.029658,-0.0051205,0.034398,0.0013173,0.010715,-0.00057848,0,0,0.061577,-0.024433,0,-0.0030081,0,0,0,0.034408,0.0013071,0.010715,-1.0009,0.015477,0.029543,8.8583e-07,0.68,0.65,0
0.030275,-0.0051053,0.034474,0.0011853,0.010698,-0.00060476,0,0,0.061819,-0.024733,0,-0.0031448,0,0,0,0.034485,0.0011742,0.010698,-1.0399,0.015452,0.029717,8.9596e-07,0.69,0.65,0
0.030894,-0.0050955,0.034546,0.0010356,0.010675,-0.00061849,0,0,0.062066,-0.025061,0,-0.0032162,0,0,0,0.034558,0.0010241,0.010675,-1.0566,0.015419,0.0299,9.0631e-07,0.7,0.65,0
0.031516,-0.0050903,0.034611,0.00087662,0.010646,-0.00062102,0,0,0.062309,-0.025401,0,-0.0032293,0,0,0,0.034623,0.00086514,0.010646,-1.054,0.015378,0.030084,9.1638e-07,0.71,0.65,0
0.032141,-0.0050887,0.034669,0.00071457,0.010615,-0.00061404,0,0,0.06254,-0.025741,0,-0.003193,0,0,0,0.03468,0.00070343,0.010615,-1.0355,0.015333,0.030264,9.259e-07,0.72,0.65,0
0.032767,-0.0050901,0.034718,0.00055377,0.010581,-0.00059932,0,0,0.062754,-0.026072,0,-0.0031164,0,0,0,0.034728,0.00054322,0.010581,-1.0046,0.015284,0.030434,9.3467e-07,0.73,0.65,0
0.033396,-0.0050938,0.034758,0.00039722,0.010547,-0.00057851,0,0,0.06295,-0.026389,0,-0.0030082,0,0,0,0.034768,0.00038745,0.010547,-0.96425,0.015234,0.030594,9.426e-07,0.74,0.65,0
0.034026,-0.0050993,0.034791,0.00024695,0.010511,-0.0005531,0,0,0.063127,-0.026687,0,-0.0028761,0,0,0,0.0348,0.00023807,0.010511,-0.9171,0.015183,0.030741,9.4966e-07,0.75,0.65,0
0.034658,-0.0051061,0.034816,0.00010427,0.010476,-0.00052439,0,0,0.063284,-0.026967,0,-0.0027268,0,0,0,0.034824,9.6327e-05,0.010476,-0.86536,0.015132,0.030875,9.5586e-07,0.76,0.65,0
0.035292,-0.0051139,0.034834,-3.0057e-05,0.010441,-0.00049347,0,0,0.063421,-0.027225,0,-0.002566,0,0,0,0.034841,-3.7059e-05,0.010441,-0.81082,0.015082,0.030997,9.6122e-07,0.77,0.65,0
0.035927,-0.0051223,0.034846,-0.00015563,0.010407,-0.00046123,0,0,0.063541,-0.027463,0,-0.0023984,0,0,0,0.034852,-0.00016172,0.010407,-0.75492,0.015032,0.031106,9.6579e-07,0.78,0.65,0
0.036563,-0.0051312,0.034852,-0.00027233,0.010374,-0.00042844,0,0,0.063644,-0.027681,0,-0.0022279,0,0,0,0.034858,-0.00027757,0.010374,-0.69882,0.014985,0.031204,9.6964e-07,0.79,0.65,0
0.037199,-0.0051402,0.034854,-0.00038024,0.010342,-0.00039569,0,0,0.063731,-0.027878,0,-0.0020576,0,0,0,0.034859,-0.0003847,0.010342,-0.64341,0.014939,0.031291,9.7283e-07,0.8,0.65,0
0.037837,-0.0051492,0.034852,-0.00047957,0.010312,-0.00036345,0,0,0.063805,-0.028057,0,-0.00189,0,0,0,0.034856,-0.00048333,0.010312,-0.58939,0.014895,0.031367,9.7543e-07,0.81,0.65,0
0.038476,-0.0051581,0.034846,-0.00057064,0.010283,-0.00033211,0,0,0.063866,-0.028219,0,-0.001727,0,0,0,0.03485,-0.00057377,0.010283,-0.53728,0.014853,0.031434,9.775e-07,0.82,0.65,0
0.039115,-0.0051668,0.034838,-0.0006538,0.010255,-0.00030194,0,0,0.063915,-0.028364,0,-0.0015701,0,0,0,0.034841,-0.00065638,0.010255,-0.48745,0.014813,0.031492,9.791e-07,0.83,0.65,0
0.039754,-0.0051751,0.034827,-0.00072946,0.010229,-0.00027314,0,0,0.063955,-0.028493,0,-0.0014203,0,0,0,0.03483,-0.00073157,0.010229,-0.44016,0.014776,0.031543,9.8031e-07,0.84,0.65,0
0.040394,-0.0051831,0.034815,-0.00079805,0.010205,-0.00024586,0,0,0.063986,-0.028608,0,-0.0012785,0,0,0,0.034817,-0.00079976,0.010205,-0.39557,0.014741,0.031586,9.8117e-07,0.85,0.65,0
0.041034,-0.0051906,0.034802,-0.00085998,0.010183,-0.00022017,0,0,0.06401,-0.028711,0,-0.0011449,0,0,0,0.034803,-0.00086135,0.010183,-0.35377,0.014708,0.031624,9.8174e-07,0.86,0.65,0
0.041674,-0.0051976,0.034788,-0.00091567,0.010162,-0.00019612,0,0,0.064028,-0.028801,0,-0.0010198,0,0,0,0.034789,-0.00091676,0.010162,-0.31476,0.014678,0.031655,9.8207e-07,0.87,0.65,0
0.042314,-0.0052041,0.034773,-0.00096553,0.010142,-0.00017371,0,0,0.06404,-0.02888,0,-0.00090329,0,0,0,0.034774,-0.00096639,0.010142,-0.27851,0.01465,0.031682,9.8221e-07,0.88,0.65,0
0.042955,-0.0052101,0.034759,-0.0010099,0.010125,-0.00015289,0,0,0.064048,-0.02895,0,-0.00079504,0,0,0,0.034759,-0.0010106,0.010125,-0.24493,0.014624,0.031704,9.822e-07,0.89,0.65,0
0.043595,-0.0052156,0.034744,-0.0010493,0.010109,-0.00013362,0,0,0.064053,-0.02901,0,-0.0006948,0,0,0,0.034745,-0.0010498,0.010109,-0.2139,0.014601,0.031723,9.8207e-07,0.9,0.65,0
0.044236,-0.0052205,0.034731,-0.0010838,0.010094,-0.00011579,0,0,0.064055,-0.029062,0,-0.00060213,0,0,0,0.034731,-0.0010842,0.010094,-0.18526,0.01458,0.031738,9.8186e-07,0.91,0.65,0
0.044876,-0.0052249,0.034718,-0.0011139,0.010081,-9.9325e-05,0,0,0.064055,-0.029107,0,-0.00051649,0,0,0,0.034718,-0.0011142,0.010081,-0.15883,0.014562,0.031751,9.8159e-07,0.92,0.65,0
0.045517,-0.0052288,0.034706,-0.0011398,0.01007,-8.409e-05,0,0,0.064054,-0.029145,0,-0.00043727,0,0,0,0.034706,-0.00114,0.01007,-0.13442,0.014545,0.031761,9.813e-07,0.93,0.65,0
0.046157,-0.0052321,0.034695,-0.0011618,0.01006,-6.9961e-05,0,0,0.064052,-0.029177,0,-0.00036379,0,0,0,0.034696,-0.0011619,0.01006,-0.1118,0.014531,0.031769,9.81e-07,0.94,0.65,0
0.046798,-0.0052349,0.034686,-0.00118,0.010052,-5.6794e-05,0,0,0.064049,-0.029203,0,-0.00029533,0,0,0,0.034686,-0.0011801,0.010052,-0.090733,0.014519,0.031776,9.8072e-07,0.95,0.65,0
0.047438,-0.0052372,0.034678,-0.0011947,0.010045,-4.4442e-05,0,0,0.064047,-0.029223,0,-0.0002311,0,0,0,0.034679,-0.0011947,0.010045,-0.070986,0.01451,0.031781,9.8047e-07,0.96,0.65,0
0.048079,-0.005239,0.034672,-0.0012059,0.01004,-3.2749e-05,0,0,0.064044,-0.029239,0,-0.0001703,0,0,0,0.034672,-0.001206,0.01004,-0.052301,0.014502,0.031784,9.8026e-07,0.97,0.65,0
0.048719,-0.0052402,0.034668,-0.0012139,0.010036,-2.1554e-05,0,0,0.064042,-0.02925,0,-0.00011208,0,0,0,0.034668,-0.0012139,0.010036,-0.034419,0.014497,0.031787,9.801e-07,0.98,0.65,0
0.04936,-0.005241,0.034665,-0.0012186,0.010034,-1.1903e-05,0,0,0.064041,-0.029257,0,-6.1894e-05,0,0,0,0.034665,-0.0012186,0.010034,-0.019006,0.014494,0.031788,9.8001e-07,0.99,0.65,0
0.04968,-0.0052412,0.034664,-0.0012202,0.010033,-7.7444e-06,0,0,0.064041,-0.029259,0,-4.0271e-05,0,0,0,0.034664,-0.0012202,0.010033,-0.012365,0.014492,0.031789,9.7998e-07,1,0.65,0
0.00022772,-5.7626e-05,0.030641,0.012962,0.013081,-0.0022122,0,0,0.045657,-0.00030996,0,-0.011503,0,0,0,0.030914,0.012689,0.013081,-7.0255,0.018895,0.018033,3.0068e-07,0,0.66,0
0.00045657,-0.00011433,0.030663,0.012795,0.013038,-0.0021985,0,0,0.045827,-0.00062988,0,-0.011432,0,0,0,0.03093,0.012528,0.013038,-6.9144,0.018832,0.018153,3.0642e-07,0.01,0.66,0
0.00091653,-0.00022586,0.030743,0.012469,0.012964,-0.0021605,0,0,0.046227,-0.0012865,0,-0.011234,0,0,0,0.030996,0.012216,0.012964,-6.6546,0.018725,0.018418,3.1911e-07,0.02,0.66,0
0.0013811,-0.00033354,0.030858,0.012142,0.0129,-0.0021095,0,0,0.04669,-0.0019709,0,-0.010969,0,0,0,0.031093,0.011906,0.0129,-6.3548,0.018633,0.01871,3.3322e-07,0.03,0.66,0
0.0018503,-0.00043719,0.030968,0.011803,0.012831,-0.0020533,0,0,0.047155,-0.002673,0,-0.010677,0,0,0,0.031186,0.011585,0.012831,-6.0503,0.018534,0.019009,3.4766e-07,0.04,0.66,0
0.0023242,-0.00053659,0.03107,0.011456,0.012758,-0.0019912,0,0,0.047612,-0.0033844,0,-0.010354,0,0,0,0.031271,0.011256,0.012758,-5.7417,0.018428,0.019309,3.6218e-07,0.05,0.66,0
0.0028026,-0.00063151,0.031163,0.011103,0.01268,-0.0019227,0,0,0.048056,-0.004099,0,-0.0099981,0,0,0,0.031346,0.01092,0.01268,-5.429,0.018316,0.019606,3.7657e-07,0.06,0.66,0
0.0032853,-0.0007217,0.031244,0.010746,0.012597,-0.0018475,0,0,0.048482,-0.0048117,0,-0.0096071,0,0,0,0.03141,0.010581,0.012597,-5.1124,0.018196,0.019898,3.9063e-07,0.07,0.66,0
0.0037722,-0.00080689,0.03131,0.010386,0.012509,-0.0017655,0,0,0.048884,-0.0055193,0,-0.0091806,0,0,0,0.031459,0.010238,0.012509,-4.7921,0.018068,0.020182,4.042e-07,0.08,0.66,0
0.004263,-0.00088683,0.03136,0.010023,0.012415,-0.0016769,0,0,0.049258,-0.0062197,0,-0.0087196,0,0,0,0.031491,0.0098912,0.012415,-4.4689,0.017933,0.020456,4.1712e-07,0.09,0.66,0
0.0047574,-0.00096129,0.031391,0.0096554,0.012314,-0.0015822,0,0,0.0496,-0.0069121,0,-0.0082274,0,0,0,0.031506,0.0095404,0.012314,-4.1443,0.017787,0.020719,4.2929e-07,0.1,0.66,0
0.005255,-0.0010301,0.031401,0.0092832,0.012205,-0.0014826,0,0,0.049908,-0.007597,0,-0.0077096,0,0,0,0.0315,0.0091839,0.012205,-3.8205,0.01763,0.02097,4.4058e-07,0.11,0.66,0
0.0057555,-0.0010931,0.031387,0.0089041,0.012087,-0.0013798,0,0,0.050178,-0.008276,0,-0.0071751,0,0,0,0.031471,0.0088194,0.012087,-3.5013,0.017459,0.021208,4.5091e-07,0.12,0.66,0
0.0062586,-0.0011503,0.031346,0.0085157,0.011959,-0.0012763,0,0,0.050408,-0.0089516,0,-0.0066368,0,0,0,0.031418,0.0084441,0.011959,-3.192,0.017273,0.021434,4.6018e-07,0.13,0.66,0
0.0067637,-0.001202,0.031276,0.0081146,0.011817,-0.0011757,0,0,0.050594,-0.0096271,0,-0.0061138,0,0,0,0.031336,0.0080546,0.011817,-2.9004,0.017069,0.021648,4.6832e-07,0.14,0.66,0
0.0072704,-0.0012483,0.031173,0.0076977,0.011661,-0.0010831,0,0,0.050731,-0.010305,0,-0.0056321,0,0,0,0.031224,0.0076473,0.011661,-2.6377,0.016844,0.021848,4.7518e-07,0.15,0.66,0
0.0077783,-0.0012901,0.031033,0.0072628,0.011489,-0.001005,0,0,0.050815,-0.010987,0,-0.0052261,0,0,0,0.031076,0.0072197,0.011489,-2.4181,0.016595,0.022034,4.8057e-07,0.16,0.66,0
0.0082867,-0.0013284,0.03085,0.0068102,0.011298,-0.00095018,0,0,0.050835,-0.011669,0,-0.0049409,0,0,0,0.030889,0.0067718,0.011298,-2.2606,0.016319,0.022203,4.8423e-07,0.17,0.66,0
0.008795,-0.001365,0.030616,0.0063396,0.011087,-0.0009305,0,0,0.050775,-0.012342,0,-0.0048386,0,0,0,0.030653,0.0063026,0.011087,-2.1917,0.016014,0.022346,4.856e-07,0.18,0.66,0
0.0093022,-0.001402,0.030305,0.0058621,0.01085,-0.00096056,0,0,0.050582,-0.012969,0,-0.0049949,0,0,0,0.030345,0.0058221,0.01085,-2.2455,0.015672,0.022436,4.8318e-07,0.19,0.66,0
0.0098067,-0.0014424,0.029894,0.0054292,0.010597,-0.0010403,0,0,0.050172,-0.013436,0,-0.0054097,0,0,0,0.029942,0.0053805,0.010597,-2.4286,0.015307,0.022414,4.7441e-07,0.2,0.66,0
0.010306,-0.0014883,0.029355,0.0050735,0.010329,-0.0011327,0,0,0.049469,-0.013663,0,-0.0058902,0,0,0,0.029416,0.0050133,0.010329,-2.666,0.014919,0.022227,4.5725e-07,0.21,0.66,0
0.010796,-0.0015399,0.028704,0.0047248,0.010029,-0.0012211,0,0,0.048557,-0.01379,0,-0.0063498,0,0,0,0.02878,0.0046497,0.010029,-2.917,0.014486,0.021941,4.3477e-07,0.22,0.66,0
0.011277,-0.0015998,0.028026,0.0043624,0.0097164,-0.0012943,0,0,0.047604,-0.01392,0,-0.0067302,0,0,0,0.028113,0.0042751,0.0097164,-3.1401,0.014035,0.021637,4.1175e-07,0.23,0.66,0
0.011748,-0.0016764,0.027359,0.0041577,0.0094549,-0.001289,0,0,0.04655,-0.013773,0,-0.0067026,0,0,0,0.027443,0.0040737,0.0094549,-3.1901,0.013657,0.021197,3.8551e-07,0.24,0.66,0
0.012208,-0.0017723,0.026949,0.0041008,0.009315,-0.0011922,0,0,0.04484,-0.013225,0,-0.0062098,0,0,0,0.027024,0.0040257,0.009315,-3.0517,0.013455,0.020864,3.7476e-07,0.25,0.66,0
0.012648,-0.001881,0.02675,0.003936,0.0092059,-0.00094995,0,0,0.042555,-0.012711,0,-0.004988,0,0,0,0.02681,0.003876,0.0092059,-2.5484,0.013297,0.020789,3.8698e-07,0.26,0.66,0
0.013065,-0.0020045,0.02642,0.0036111,0.0090092,-0.00049393,0,0,0.041064,-0.012683,0,-0.0026933,0,0,0,0.026449,0.003582,0.0090092,-1.4179,0.013013,0.020695,3.9665e-07,0.27,0.66,0
0.013472,-0.002147,0.026316,0.0031565,0.0088417,8.7319e-05,0,0,0.041018,-0.013331,0,0.00019151,0,0,0,0.026328,0.0031444,0.0088417,0.10131,0.012771,0.020926,4.1473e-07,0.28,0.66,0
0.013885,-0.0023032,0.02665,0.0025771,0.0087681,0.00073598,0,0,0.041866,-0.01453,0,0.0033452,0,0,0,0.026685,0.0025419,0.0087681,1.7066,0.012665,0.021712,4.5494e-07,0.29,0.66,0
0.014309,-0.0024664,0.027685,0.0016436,0.0087986,0.0015863,0,0,0.041317,-0.015545,0,0.0066226,0,0,0,0.0278,0.0015287,0.0087986,3.398,0.012709,0.023501,5.4863e-07,0.3,0.66,0
0.014716,-0.0026384,0.028566,0.00038464,0.0086852,0.002614,0,0,0.038,-0.015633,0,0.0098111,0,0,0,0.028834,0.00011631,0.0086852,5.2657,0.012545,0.025543,6.5371e-07,0.31,0.66,0
0.015074,-0.0028077,0.027904,-0.00053923,0.0082093,0.0032638,0,0,0.0344,-0.015043,0,0.011788,0,0,0,0.028302,-0.00093774,0.0082093,6.6178,0.011858,0.025911,6.4439e-07,0.32,0.66,0
0.015394,-0.0029514,0.027824,-0.00099659,0.0080482,0.00343,0,0,0.031416,-0.014152,0,0.011321,0,0,0,0.02825,-0.0014223,0.0080482,6.8117,0.011625,0.026253,6.1078e-07,0.33,0.66,0
0.015686,-0.0030756,0.029549,-0.0011289,0.0085261,0.0035396,0,0,0.029056,-0.013276,0,0.0099201,0,0,0,0.029967,-0.0015469,0.0085261,6.5157,0.012315,0.027879,6.6878e-07,0.34,0.66,0
0.015969,-0.0031938,0.031104,-0.00099382,0.009033,0.003527,0,0,0.028692,-0.013035,0,0.0091701,0,0,0,0.031497,-0.0013875,0.009033,6.1777,0.013048,0.029109,7.4462e-07,0.35,0.66,0
0.01626,-0.0033077,0.031995,-0.00090373,0.0093275,0.0033678,0,0,0.029468,-0.013301,0,0.0087563,0,0,0,0.032344,-0.0012522,0.0093275,5.7725,0.013473,0.029752,8.004e-07,0.36,0.66,0
0.016558,-0.0034195,0.032722,-0.00097047,0.0095254,0.0032123,0,0,0.030155,-0.013645,0,0.0083521,0,0,0,0.03303,-0.0012792,0.0095254,5.3911,0.013759,0.030384,8.5164e-07,0.37,0.66,0
0.016863,-0.0035311,0.033328,-0.0011106,0.0096652,0.0030474,0,0,0.030762,-0.014009,0,0.0079233,0,0,0,0.0336,-0.0013825,0.0096652,5.0141,0.013961,0.030973,8.9812e-07,0.38,0.66,0
0.017174,-0.0036443,0.033873,-0.0012751,0.0097792,0.0028579,0,0,0.031321,-0.014371,0,0.0074306,0,0,0,0.034108,-0.0015101,0.0097792,4.6158,0.014126,0.031527,9.42e-07,0.39,0.66,0
0.017489,-0.0037603,0.03438,-0.0014251,0.0098864,0.002625,0,0,0.031841,-0.014705,0,0.006825,0,0,0,0.034575,-0.0016207,0.0098864,4.1687,0.01428,0.032032,9.8354e-07,0.4,0.66,0
0.01781,-0.0038807,0.03485,-0.0015115,0.010001,0.0023367,0,0,0.032303,-0.014967,0,0.0060754,0,0,0,0.035003,-0.0016652,0.010001,3.6593,0.014446,0.032448,1.0211e-06,0.41,0.66,0
0.018136,-0.0040066,0.03527,-0.0014727,0.010139,0.0020016,0,0,0.03267,-0.015095,0,0.0052041,0,0,0,0.035382,-0.0015851,0.010139,3.1053,0.014645,0.03272,1.0518e-06,0.42,0.66,0
0.018464,-0.0041383,0.035628,-0.001259,0.010311,0.0016582,0,0,0.032912,-0.015041,0,0.0043112,0,0,0,0.035705,-0.0013361,0.010311,2.5642,0.014893,0.032807,1.0733e-06,0.43,0.66,0
0.018794,-0.0042748,0.035924,-0.00087736,0.010514,0.0013637,0,0,0.033033,-0.014809,0,0.0035457,0,0,0,0.035976,-0.00092943,0.010514,2.1152,0.015187,0.032721,1.0856e-06,0.44,0.66,0
0.019124,-0.0044141,0.036169,-0.0004059,0.010729,0.0011634,0,0,0.033072,-0.014475,0,0.0030249,0,0,0,0.036207,-0.00044369,0.010729,1.8171,0.015497,0.032537,1.0915e-06,0.45,0.66,0
0.019455,-0.0045537,0.036385,5.2277e-05,0.010931,0.001065,0,0,0.03309,-0.014143,0,0.0027689,0,0,0,0.036417,2.0552e-05,0.010931,1.6755,0.01579,0.032352,1.0958e-06,0.46,0.66,0
0.019786,-0.0046913,0.036591,0.00042686,0.011105,0.0010415,0,0,0.033132,-0.013882,0,0.002708,0,0,0,0.036622,0.00039635,0.011105,1.6467,0.016041,0.032234,1.102e-06,0.47,0.66,0
0.020118,-0.0048255,0.036792,0.00069962,0.011247,0.0010539,0,0,0.033208,-0.013712,0,0.0027402,0,0,0,0.036823,0.00066833,0.011247,1.6695,0.016246,0.032196,1.1112e-06,0.48,0.66,0
0.02045,-0.0049556,0.03698,0.0009041,0.011365,0.0010762,0,0,0.033299,-0.013599,0,0.0027982,0,0,0,0.037012,0.00087158,0.011365,1.7057,0.016416,0.032203,1.1215e-06,0.49,0.66,0
0.020784,-0.0050814,0.037162,0.0010958,0.011477,0.0011165,0,0,0.03339,-0.013496,0,0.002903,0,0,0,0.037197,0.0010609,0.011477,1.7703,0.016578,0.032216,1.1317e-06,0.5,0.66,0
0.021118,-0.0052021,0.03736,0.0012611,0.011586,0.0011988,0,0,0.033506,-0.013423,0,0.0031169,0,0,0,0.0374,0.0012207,0.011586,1.8988,0.016736,0.032271,1.1449e-06,0.51,0.66,0
0.021454,-0.0053174,0.037585,0.0012964,0.011664,0.0013018,0,0,0.033697,-0.013479,0,0.0033848,0,0,0,0.037633,0.0012489,0.011664,2.05,0.016849,0.032455,1.1657e-06,0.52,0.66,0
0.021792,-0.0054277,0.037826,0.0012051,0.011709,0.0013497,0,0,0.033952,-0.013656,0,0.0035093,0,0,0,0.037877,0.0011545,0.011709,2.1055,0.016914,0.032747,1.1925e-06,0.53,0.66,0
0.022133,-0.0055349,0.038046,0.0012418,0.011786,0.0013601,0,0,0.034138,-0.013708,0,0.0035362,0,0,0,0.038097,0.0011905,0.011786,2.1101,0.017025,0.032914,1.2125e-06,0.54,0.66,0
0.022475,-0.0056373,0.038159,0.0013759,0.01186,0.0013905,0,0,0.034188,-0.01363,0,0.0036153,0,0,0,0.038213,0.0013218,0.01186,2.1587,0.017132,0.032913,1.2186e-06,0.55,0.66,0
0.022817,-0.00573,0.037738,0.0010521,0.011637,0.0013678,0,0,0.034624,-0.01407,0,0.0034926,0,0,0,0.037795,0.00099563,0.011637,2.0909,0.016809,0.032801,1.2031e-06,0.56,0.66,0
0.023165,-0.0058118,0.036765,0.00033772,0.011131,0.0011129,0,0,0.03704,-0.015667,0,0.0026554,0,0,0,0.036818,0.00028444,0.011131,1.6426,0.016078,0.032499,1.186e-06,0.57,0.66,0
0.023553,-0.0058713,0.036547,-0.00022718,0.010896,0.00050852,0,0,0.043331,-0.018851,0,0.00071491,0,0,0,0.036589,-0.00026934,0.010896,0.71102,0.015738,0.032737,1.2478e-06,0.58,0.66,0
0.024036,-0.005875,0.037119,-0.00055635,0.010969,-0.00022588,0,0,0.052568,-0.023149,0,-0.0017919,0,0,0,0.037149,-0.00058612,0.010969,-0.38017,0.015844,0.033489,1.325e-06,0.59,0.66,0
0.024621,-0.005811,0.03674,-0.00038165,0.010908,-0.00057862,0,0,0.060141,-0.026159,0,-0.0029452,0,0,0,0.036759,-0.00040029,0.010908,-0.90691,0.015755,0.032993,1.2319e-06,0.6,0.66,0
0.025253,-0.0057173,0.035596,0.0002718,0.01076,-0.00046092,0,0,0.063075,-0.026572,0,-0.0023015,0,0,0,0.035605,0.00026291,0.01076,-0.74554,0.015543,0.031438,1.0444e-06,0.61,0.66,0
0.025887,-0.0056319,0.034979,0.00082851,0.010742,-0.00032425,0,0,0.063016,-0.025776,0,-0.0016861,0,0,0,0.034983,0.00082408,0.010742,-0.55122,0.015517,0.030438,9.4831e-07,0.62,0.66,0
0.026513,-0.0055602,0.034794,0.0011905,0.010795,-0.00032317,0,0,0.062396,-0.024972,0,-0.0016805,0,0,0,0.034797,0.0011868,0.010795,-0.55386,0.015593,0.029984,9.2098e-07,0.63,0.66,0
0.027135,-0.0054994,0.034672,0.0014438,0.010835,-0.00037136,0,0,0.061976,-0.024416,0,-0.0019311,0,0,0,0.034676,0.0014394,0.010835,-0.64167,0.01565,0.029676,9.03e-07,0.64,0.66,0
0.027753,-0.0054503,0.034616,0.0015501,0.01085,-0.00045556,0,0,0.061793,-0.02418,0,-0.0023689,0,0,0,0.034623,0.0015437,0.01085,-0.78941,0.015672,0.029547,8.9539e-07,0.65,0.66,0
0.028371,-0.0054125,0.034616,0.0015454,0.010848,-0.00053686,0,0,0.061796,-0.024188,0,-0.0027917,0,0,0,0.034625,0.0015366,0.010848,-0.92948,0.01567,0.029554,8.9573e-07,0.66,0.66,0
0.028989,-0.0053848,0.034648,0.0014705,0.010835,-0.00059989,0,0,0.061912,-0.024349,0,-0.0031194,0,0,0,0.034659,0.0014596,0.010835,-1.0351,0.015651,0.029645,9.0081e-07,0.67,0.66,0
0.029609,-0.0053656,0.034693,0.0013511,0.010813,-0.00064262,0,0,0.062087,-0.024601,0,-0.0033416,0,0,0,0.034705,0.0013386,0.010813,-1.1033,0.015619,0.029782,9.0832e-07,0.68,0.66,0
0.030231,-0.0053534,0.034741,0.0012038,0.010784,-0.00066702,0,0,0.06229,-0.024907,0,-0.0034685,0,0,0,0.034755,0.0011905,0.010784,-1.1386,0.015576,0.029943,9.169e-07,0.69,0.66,0
0.030855,-0.0053469,0.034788,0.0010407,0.010749,-0.00067575,0,0,0.062503,-0.025241,0,-0.0035139,0,0,0,0.034802,0.0010272,0.010749,-1.1464,0.015526,0.030115,9.2578e-07,0.7,0.66,0
0.031481,-0.0053451,0.03483,0.00087069,0.01071,-0.00067152,0,0,0.062712,-0.025583,0,-0.0034919,0,0,0,0.034844,0.00085739,0.01071,-1.1322,0.015471,0.030287,9.3445e-07,0.71,0.66,0
0.032109,-0.0053469,0.034867,0.00069975,0.01067,-0.00065695,0,0,0.062912,-0.025923,0,-0.0034161,0,0,0,0.03488,0.0006871,0.01067,-1.1011,0.015412,0.030454,9.426e-07,0.72,0.66,0
0.032739,-0.0053516,0.034896,0.00053206,0.010629,-0.00063441,0,0,0.063097,-0.026251,0,-0.003299,0,0,0,0.034908,0.00052033,0.010629,-1.0573,0.015352,0.030612,9.5005e-07,0.73,0.66,0
0.033371,-0.0053585,0.034919,0.00037038,0.010587,-0.00060599,0,0,0.063264,-0.026563,0,-0.0031511,0,0,0,0.03493,0.00035973,0.010587,-1.0046,0.015292,0.030759,9.5671e-07,0.74,0.66,0
0.034004,-0.0053669,0.034935,0.00021647,0.010546,-0.0005734,0,0,0.063413,-0.026856,0,-0.0029817,0,0,0,0.034945,0.00020698,0.010546,-0.94603,0.015232,0.030894,9.6254e-07,0.75,0.66,0
0.034639,-0.0053765,0.034945,7.1381e-05,0.010505,-0.00053809,0,0,0.063544,-0.027127,0,-0.0027981,0,0,0,0.034953,6.3058e-05,0.010505,-0.8839,0.015174,0.031017,9.6757e-07,0.76,0.66,0
0.035275,-0.0053869,0.034949,-6.4327e-05,0.010465,-0.00050123,0,0,0.063658,-0.027377,0,-0.0026064,0,0,0,0.034956,-7.1524e-05,0.010465,-0.82011,0.015117,0.031127,9.7181e-07,0.77,0.66,0
0.035912,-0.0053977,0.034948,-0.00019046,0.010427,-0.00046376,0,0,0.063754,-0.027606,0,-0.0024116,0,0,0,0.034954,-0.0001966,0.010427,-0.75614,0.015062,0.031225,9.7534e-07,0.78,0.66,0
0.03655,-0.0054086,0.034943,-0.00030705,0.010391,-0.00042643,0,0,0.063836,-0.027814,0,-0.0022174,0,0,0,0.034948,-0.00031223,0.010391,-0.6931,0.015009,0.031312,9.782e-07,0.79,0.66,0
0.037189,-0.0054196,0.034934,-0.00041433,0.010356,-0.00038981,0,0,0.063903,-0.028003,0,-0.002027,0,0,0,0.034938,-0.00041865,0.010356,-0.63184,0.014959,0.031389,9.8047e-07,0.8,0.66,0
0.037828,-0.0054304,0.034922,-0.00051264,0.010323,-0.00035435,0,0,0.063958,-0.028172,0,-0.0018426,0,0,0,0.034925,-0.0005162,0.010323,-0.57298,0.014911,0.031455,9.8221e-07,0.81,0.66,0
0.038468,-0.0054408,0.034907,-0.00060237,0.010291,-0.00032038,0,0,0.064001,-0.028324,0,-0.001666,0,0,0,0.03491,-0.00060528,0.010291,-0.51698,0.014865,0.031513,9.8348e-07,0.82,0.66,0
0.039108,-0.0054509,0.034891,-0.00068398,0.010262,-0.00028816,0,0,0.064034,-0.028459,0,-0.0014984,0,0,0,0.034893,-0.00068633,0.010262,-0.46414,0.014823,0.031563,9.8434e-07,0.83,0.66,0
0.039749,-0.0054605,0.034872,-0.00075795,0.010234,-0.00025782,0,0,0.064059,-0.02858,0,-0.0013407,0,0,0,0.034874,-0.00075983,0.010234,-0.41463,0.014783,0.031605,9.8487e-07,0.84,0.66,0
0.040389,-0.0054696,0.034853,-0.00082475,0.010209,-0.00022948,0,0,0.064076,-0.028687,0,-0.0011933,0,0,0,0.034855,-0.00082624,0.010209,-0.36855,0.014746,0.031641,9.851e-07,0.85,0.66,0
0.04103,-0.005478,0.034834,-0.00088486,0.010185,-0.00020316,0,0,0.064088,-0.028781,0,-0.0010564,0,0,0,0.034835,-0.00088603,0.010185,-0.32592,0.014711,0.031672,9.851e-07,0.86,0.66,0
0.041671,-0.0054859,0.034814,-0.00093873,0.010163,-0.00017887,0,0,0.064094,-0.028863,0,-0.00093013,0,0,0,0.034815,-0.00093964,0.010163,-0.28668,0.014679,0.031697,9.8491e-07,0.87,0.66,0
0.042312,-0.0054932,0.034794,-0.00098681,0.010142,-0.00015657,0,0,0.064096,-0.028936,0,-0.00081415,0,0,0,0.034795,-0.00098751,0.010142,-0.25073,0.01465,0.031718,9.8458e-07,0.88,0.66,0
0.042953,-0.0054999,0.034775,-0.0010295,0.010124,-0.00013618,0,0,0.064094,-0.028999,0,-0.00070812,0,0,0,0.034776,-0.00103,0.010124,-0.21793,0.014623,0.031735,9.8414e-07,0.89,0.66,0
0.043594,-0.0055059,0.034757,-0.0010672,0.010107,-0.0001176,0,0,0.06409,-0.029053,0,-0.00061153,0,0,0,0.034757,-0.0010676,0.010107,-0.1881,0.014599,0.031749,9.8363e-07,0.9,0.66,0
0.044235,-0.0055113,0.03474,-0.0011002,0.010092,-0.00010073,0,0,0.064085,-0.0291,0,-0.0005238,0,0,0,0.03474,-0.0011005,0.010092,-0.16104,0.014577,0.03176,9.8308e-07,0.91,0.66,0
0.044876,-0.0055162,0.034724,-0.0011289,0.010079,-8.5425e-05,0,0,0.064078,-0.029139,0,-0.00044421,0,0,0,0.034724,-0.0011291,0.010079,-0.13652,0.014558,0.031769,9.8251e-07,0.92,0.66,0
0.045516,-0.0055204,0.034709,-0.0011536,0.010067,-7.1541e-05,0,0,0.064071,-0.029173,0,-0.00037201,0,0,0,0.03471,-0.0011537,0.010067,-0.1143,0.014541,0.031775,9.8196e-07,0.93,0.66,0
0.046157,-0.005524,0.034697,-0.0011745,0.010057,-5.8921e-05,0,0,0.064064,-0.029201,0,-0.00030639,0,0,0,0.034697,-0.0011746,0.010057,-0.094116,0.014526,0.031781,9.8144e-07,0.94,0.66,0
0.046798,-0.005527,0.034685,-0.0011917,0.010048,-4.7397e-05,0,0,0.064057,-0.029224,0,-0.00024646,0,0,0,0.034685,-0.0011918,0.010048,-0.075695,0.014514,0.031785,9.8098e-07,0.95,0.66,0
0.047438,-0.0055295,0.034676,-0.0012056,0.010041,-3.6796e-05,0,0,0.064051,-0.029242,0,-0.00019134,0,0,0,0.034676,-0.0012057,0.010041,-0.058758,0.014504,0.031787,9.8057e-07,0.96,0.66,0
0.048079,-0.0055314,0.034669,-0.0012163,0.010036,-2.6941e-05,0,0,0.064046,-0.029255,0,-0.00014009,0,0,0,0.034669,-0.0012163,0.010036,-0.043016,0.014496,0.03179,9.8025e-07,0.97,0.66,0
0.048719,-0.0055328,0.034664,-0.0012238,0.010032,-1.7647e-05,0,0,0.064042,-0.029265,0,-9.1764e-05,0,0,0,0.034664,-0.0012238,0.010032,-0.028175,0.014491,0.031791,9.8001e-07,0.98,0.66,0
0.04936,-0.0055336,0.03466,-0.0012283,0.01003,-1.0036e-05,0,0,0.06404,-0.029271,0,-5.2186e-05,0,0,0,0.03466,-0.0012283,0.01003,-0.016022,0.014487,0.031792,9.7986e-07,0.99,0.66,0
0.04968,-0.0055339,0.034659,-0.0012298,0.010029,-6.9541e-06,0,0,0.064039,-0.029272,0,-3.6161e-05,0,0,0,0.034659,-0.0012298,0.010029,-0.011102,0.014486,0.031792,9.7982e-07,1,0.66,0
0.00022709,-6.0742e-05,0.030555,0.012922,0.013043,-0.0023315,0,0,0.045531,-0.00031558,0,-0.012124,0,0,0,0.030859,0.012618,0.013043,-7.4065,0.01884,0.018032,3.0055e-07,0,0.67,0
0.00045531,-0.00012066,0.030578,0.012752,0.012999,-0.0023176,0,0,0.045705,-0.00064143,0,-0.012052,0,0,0,0.030875,0.012455,0.012999,-7.2901,0.018776,0.018154,3.0635e-07,0.01,0.67,0
0.00091409,-0.0002388,0.030659,0.01242,0.012924,-0.0022788,0,0,0.046113,-0.0013105,0,-0.01185,0,0,0,0.030941,0.012139,0.012924,-7.0177,0.018668,0.018422,3.1916e-07,0.02,0.67,0
0.0013776,-0.00035338,0.030776,0.012086,0.012859,-0.0022249,0,0,0.046586,-0.0020086,0,-0.01157,0,0,0,0.031038,0.011824,0.012859,-6.6992,0.018574,0.018719,3.3341e-07,0.03,0.67,0
0.0018458,-0.0004641,0.030889,0.011741,0.012789,-0.0021629,0,0,0.047061,-0.0027256,0,-0.011247,0,0,0,0.031131,0.011499,0.012789,-6.3682,0.018473,0.019021,3.4796e-07,0.04,0.67,0
0.0023188,-0.00057069,0.030995,0.011386,0.012715,-0.0020924,0,0,0.04753,-0.003453,0,-0.010881,0,0,0,0.031217,0.011165,0.012715,-6.0268,0.018365,0.019324,3.6259e-07,0.05,0.67,0
0.0027964,-0.00067282,0.031092,0.011026,0.012635,-0.0020131,0,0,0.047987,-0.0041845,0,-0.010468,0,0,0,0.031292,0.010825,0.012635,-5.6761,0.018251,0.019625,3.771e-07,0.06,0.67,0
0.0032785,-0.0007702,0.031177,0.010661,0.012551,-0.0019249,0,0,0.048426,-0.0049149,0,-0.010009,0,0,0,0.031356,0.010481,0.012551,-5.3171,0.01813,0.019921,3.9129e-07,0.07,0.67,0
0.0037649,-0.00086254,0.031248,0.010293,0.012462,-0.0018277,0,0,0.048843,-0.0056404,0,-0.0095039,0,0,0,0.031407,0.010134,0.012462,-4.9506,0.018001,0.02021,4.0501e-07,0.08,0.67,0
0.0042554,-0.00094956,0.031303,0.0099218,0.012367,-0.0017218,0,0,0.049232,-0.0063586,0,-0.0089532,0,0,0,0.031441,0.0097836,0.012367,-4.5777,0.017864,0.020489,4.1812e-07,0.09,0.67,0
0.0047496,-0.001031,0.03134,0.009548,0.012266,-0.0016077,0,0,0.049592,-0.007068,0,-0.0083602,0,0,0,0.031459,0.0094295,0.012266,-4.1998,0.017718,0.020757,4.305e-07,0.1,0.67,0
0.0052472,-0.0011067,0.031357,0.0091705,0.012158,-0.0014866,0,0,0.049917,-0.0077684,0,-0.0077303,0,0,0,0.031457,0.0090708,0.012158,-3.8193,0.017562,0.021014,4.4204e-07,0.11,0.67,0
0.0057479,-0.0011766,0.031352,0.0087881,0.012042,-0.0013599,0,0,0.050207,-0.0084605,0,-0.0070716,0,0,0,0.031435,0.0087059,0.012042,-3.4395,0.017394,0.021258,4.5266e-07,0.12,0.67,0
0.0062513,-0.0012406,0.031323,0.0083992,0.011917,-0.00123,0,0,0.050457,-0.0091456,0,-0.006396,0,0,0,0.03139,0.0083328,0.011917,-3.0654,0.017213,0.021491,4.6227e-07,0.13,0.67,0
0.0067571,-0.0012989,0.031267,0.0080017,0.011781,-0.0011001,0,0,0.050665,-0.0098254,0,-0.0057203,0,0,0,0.03132,0.0079492,0.011781,-2.704,0.017017,0.02171,4.7079e-07,0.14,0.67,0
0.0072646,-0.001352,0.031182,0.0075939,0.011633,-0.00097449,0,0,0.050827,-0.010501,0,-0.0050673,0,0,0,0.031222,0.007553,0.011633,-2.3646,0.016803,0.021917,4.7807e-07,0.15,0.67,0
0.0077736,-0.0014005,0.031062,0.007175,0.011471,-0.00085902,0,0,0.050937,-0.01117,0,-0.0044669,0,0,0,0.031094,0.0071434,0.011471,-2.0596,0.01657,0.022107,4.8392e-07,0.16,0.67,0
0.0082834,-0.0014455,0.030904,0.0067456,0.011295,-0.00076092,0,0,0.050984,-0.011828,0,-0.0039568,0,0,0,0.030929,0.0067208,0.011295,-1.8049,0.016315,0.022277,4.8797e-07,0.17,0.67,0
0.0087933,-0.0014885,0.030696,0.0063107,0.011102,-0.00068833,0,0,0.050945,-0.012458,0,-0.0035793,0,0,0,0.030717,0.0062901,0.011102,-1.618,0.016036,0.022412,4.8947e-07,0.18,0.67,0
0.0093023,-0.0015313,0.030426,0.0058857,0.010893,-0.00064581,0,0,0.050784,-0.01302,0,-0.0033582,0,0,0,0.030445,0.0058668,0.010893,-1.5091,0.015735,0.02249,4.8727e-07,0.19,0.67,0
0.009809,-0.001576,0.030081,0.0054932,0.010672,-0.00062555,0,0,0.050463,-0.013466,0,-0.0032529,0,0,0,0.0301,0.0054742,0.010672,-1.4607,0.015416,0.022483,4.8018e-07,0.2,0.67,0
0.010312,-0.0016245,0.029671,0.0051419,0.010444,-0.00060982,0,0,0.049991,-0.013785,0,-0.003171,0,0,0,0.029691,0.0051222,0.010444,-1.4312,0.015086,0.022388,4.6853e-07,0.21,0.67,0
0.010809,-0.0016784,0.029204,0.0047787,0.010195,-0.00059304,0,0,0.049423,-0.014082,0,-0.0030838,0,0,0,0.029224,0.0047586,0.010195,-1.4023,0.014726,0.022251,4.5424e-07,0.22,0.67,0
0.0113,-0.0017414,0.028654,0.0043735,0.0099084,-0.00060129,0,0,0.04874,-0.014391,0,-0.0031267,0,0,0,0.028676,0.0043515,0.0099084,-1.4337,0.014312,0.022078,4.3729e-07,0.23,0.67,0
0.011784,-0.0018182,0.028024,0.0040721,0.009629,-0.00062617,0,0,0.047828,-0.014448,0,-0.0032561,0,0,0,0.02805,0.0040463,0.009629,-1.5214,0.013908,0.021757,4.1473e-07,0.24,0.67,0
0.012257,-0.00191,0.027363,0.0038967,0.0093778,-0.00060147,0,0,0.04676,-0.014251,0,-0.0031276,0,0,0,0.027391,0.0038683,0.0093778,-1.5117,0.013546,0.021309,3.8865e-07,0.25,0.67,0
0.012719,-0.0020162,0.026745,0.0036277,0.0091119,-0.00047885,0,0,0.045847,-0.014259,0,-0.00249,0,0,0,0.026769,0.0036038,0.0091119,-1.2448,0.013162,0.020962,3.671e-07,0.26,0.67,0
0.013174,-0.0021415,0.026269,0.0032265,0.0088487,-0.00026252,0,0,0.045293,-0.014618,0,-0.0013651,0,0,0,0.02628,0.0032152,0.0088487,-0.69843,0.012781,0.020829,3.5449e-07,0.27,0.67,0
0.013625,-0.0022907,0.026003,0.0027017,0.0086114,2.5895e-05,0,0,0.045218,-0.015365,0,0.00013466,0,0,0,0.026007,0.0026977,0.0086114,0.045064,0.012439,0.020989,3.5331e-07,0.28,0.67,0
0.014078,-0.0024591,0.025992,0.0019771,0.0083906,0.00044473,0,0,0.045763,-0.016675,0,0.0023126,0,0,0,0.026007,0.0019616,0.0083906,1.0564,0.01212,0.021565,3.6723e-07,0.29,0.67,0
0.01454,-0.0026347,0.026945,0.00072782,0.0083018,0.0011564,0,0,0.044422,-0.017631,0,0.0050289,0,0,0,0.027013,0.00066001,0.0083018,2.4058,0.011992,0.023497,4.6355e-07,0.3,0.67,0
0.014974,-0.0028054,0.027874,-0.00068935,0.0081553,0.0019602,0,0,0.0387,-0.01673,0,0.0072705,0,0,0,0.028037,-0.00085309,0.0081553,3.8639,0.01178,0.025622,5.8262e-07,0.31,0.67,0
0.015324,-0.0029581,0.027411,-0.0013444,0.0078199,0.002343,0,0,0.032089,-0.014666,0,0.0080178,0,0,0,0.027639,-0.0015721,0.0078199,4.7617,0.011295,0.025837,5.7384e-07,0.32,0.67,0
0.015612,-0.0030869,0.027748,-0.0014199,0.0078986,0.0024222,0,0,0.028543,-0.013292,0,0.0073981,0,0,0,0.027979,-0.0016502,0.0078986,4.8467,0.011409,0.026195,5.5903e-07,0.33,0.67,0
0.015886,-0.0032042,0.029414,-0.0012161,0.0084595,0.002531,0,0,0.027789,-0.01282,0,0.0068202,0,0,0,0.029642,-0.0014441,0.0084595,4.7277,0.012219,0.027507,6.2825e-07,0.34,0.67,0
0.016165,-0.0033217,0.030731,-0.00090853,0.0089466,0.002594,0,0,0.028319,-0.012812,0,0.0067444,0,0,0,0.030957,-0.0011349,0.0089466,4.6538,0.012923,0.028425,6.9981e-07,0.35,0.67,0
0.016453,-0.0034388,0.031642,-0.00081313,0.0092488,0.0025935,0,0,0.029112,-0.01308,0,0.0067431,0,0,0,0.031858,-0.001029,0.0092488,4.5347,0.013359,0.029141,7.5945e-07,0.36,0.67,0
0.016748,-0.0035544,0.032424,-0.00086705,0.009467,0.0025621,0,0,0.029844,-0.013434,0,0.0066614,0,0,0,0.032627,-0.00107,0.009467,4.3707,0.013675,0.029857,8.1593e-07,0.37,0.67,0
0.01705,-0.0036699,0.033094,-0.00097793,0.0096348,0.0024735,0,0,0.030497,-0.013797,0,0.0064311,0,0,0,0.033278,-0.0011619,0.0096348,4.1274,0.013917,0.03051,8.6735e-07,0.38,0.67,0
0.017358,-0.0037867,0.033679,-0.0011,0.0097736,0.0023308,0,0,0.031077,-0.014136,0,0.0060601,0,0,0,0.033839,-0.0012599,0.0097736,3.8146,0.014117,0.031087,9.1381e-07,0.39,0.67,0
0.017671,-0.0039059,0.034196,-0.0011951,0.0099004,0.0021351,0,0,0.031585,-0.014424,0,0.0055513,0,0,0,0.034329,-0.0013273,0.0099004,3.4376,0.014301,0.031576,9.5526e-07,0.4,0.67,0
0.017989,-0.0040286,0.034652,-0.0012243,0.010028,0.001892,0,0,0.032011,-0.014628,0,0.0049191,0,0,0,0.034755,-0.0013272,0.010028,3.0078,0.014485,0.031955,9.9076e-07,0.41,0.67,0
0.018311,-0.0041555,0.035045,-0.0011504,0.010168,0.0016191,0,0,0.032339,-0.014714,0,0.0042098,0,0,0,0.03512,-0.0012255,0.010168,2.5532,0.014687,0.032198,1.019e-06,0.42,0.67,0
0.018636,-0.0042866,0.035373,-0.00095249,0.010326,0.0013487,0,0,0.032561,-0.014662,0,0.0035065,0,0,0,0.035425,-0.0010045,0.010326,2.12,0.014915,0.032291,1.0391e-06,0.43,0.67,0
0.018962,-0.0044211,0.035643,-0.00064366,0.0105,0.0011186,0,0,0.032686,-0.014486,0,0.0029083,0,0,0,0.035678,-0.00067933,0.0105,1.761,0.015166,0.032256,1.0517e-06,0.44,0.67,0
0.01929,-0.0045576,0.035868,-0.00027262,0.010679,0.00095709,0,0,0.032747,-0.014237,0,0.0024884,0,0,0,0.035894,-0.00029864,0.010679,1.5137,0.015425,0.032143,1.0592e-06,0.45,0.67,0
0.019617,-0.0046943,0.036068,9.7977e-05,0.01085,0.00087068,0,0,0.032783,-0.013977,0,0.0022638,0,0,0,0.036089,7.6439e-05,0.01085,1.3842,0.015672,0.032016,1.0647e-06,0.46,0.67,0
0.019945,-0.0048295,0.036255,0.00042033,0.011003,0.00084493,0,0,0.032828,-0.013757,0,0.0021968,0,0,0,0.036276,0.00039997,0.011003,1.3487,0.015893,0.031924,1.0708e-06,0.47,0.67,0
0.020274,-0.0049619,0.036439,0.00067775,0.011135,0.00085703,0,0,0.032895,-0.013595,0,0.0022283,0,0,0,0.03646,0.00065676,0.011135,1.3708,0.016084,0.031883,1.0788e-06,0.48,0.67,0
0.020603,-0.0050909,0.036622,0.00088108,0.011251,0.00089109,0,0,0.032982,-0.013481,0,0.0023168,0,0,0,0.036645,0.00085842,0.011251,1.4261,0.016251,0.031887,1.0885e-06,0.49,0.67,0
0.020934,-0.0052158,0.036809,0.0010443,0.011356,0.00094407,0,0,0.033089,-0.013405,0,0.0024546,0,0,0,0.036834,0.0010189,0.011356,1.5098,0.016403,0.031928,1.1001e-06,0.5,0.67,0
0.021265,-0.0053362,0.037005,0.0011553,0.011448,0.0010135,0,0,0.033224,-0.013381,0,0.0026352,0,0,0,0.037035,0.0011261,0.011448,1.6167,0.016536,0.032021,1.1146e-06,0.51,0.67,0
0.021598,-0.005452,0.037205,0.0011904,0.011519,0.001079,0,0,0.033392,-0.013427,0,0.0028053,0,0,0,0.037238,0.0011575,0.011519,1.7128,0.016638,0.032176,1.1322e-06,0.52,0.67,0
0.021933,-0.0055635,0.037379,0.0011796,0.011568,0.0011175,0,0,0.033555,-0.013505,0,0.0029054,0,0,0,0.037414,0.0011447,0.011568,1.7647,0.016709,0.032343,1.149e-06,0.53,0.67,0
0.022269,-0.0056707,0.037535,0.0012406,0.011633,0.0011521,0,0,0.033673,-0.01351,0,0.0029954,0,0,0,0.037572,0.0012037,0.011633,1.815,0.016803,0.032437,1.1616e-06,0.54,0.67,0
0.022606,-0.0057724,0.037712,0.0013309,0.011713,0.0012424,0,0,0.033798,-0.013496,0,0.0032301,0,0,0,0.037754,0.0012881,0.011713,1.9522,0.016918,0.032532,1.1757e-06,0.55,0.67,0
0.022945,-0.0058672,0.037852,0.0011734,0.011708,0.0013593,0,0,0.033988,-0.013695,0,0.0035341,0,0,0,0.037903,0.0011225,0.011708,2.1176,0.016911,0.032796,1.1959e-06,0.56,0.67,0
0.023286,-0.0059566,0.037567,0.00078574,0.011506,0.0013699,0,0,0.034585,-0.014244,0,0.0035714,0,0,0,0.03762,0.00073324,0.011506,2.1096,0.01662,0.032853,1.1954e-06,0.57,0.67,0
0.023635,-0.0060386,0.036875,0.00035559,0.011169,0.0011845,0,0,0.037265,-0.015726,0,0.0031595,0,0,0,0.036921,0.00030903,0.011169,1.8295,0.016133,0.03257,1.1923e-06,0.58,0.67,0
0.024025,-0.006088,0.037128,-0.00023522,0.011068,0.00059351,0,0,0.044456,-0.019139,0,0.0015622,0,0,0,0.037167,-0.00027383,0.011068,0.97968,0.015987,0.033262,1.2996e-06,0.59,0.67,0
0.024527,-0.0060675,0.037692,-0.00047947,0.011164,-5.7716e-05,0,0,0.055129,-0.023709,0,-0.00030507,0,0,0,0.037718,-0.0005051,0.011164,-8.7125e-05,0.016125,0.033944,1.3532e-06,0.6,0.67,0
0.025143,-0.0059868,0.036798,0.00011158,0.011073,-0.00012503,0,0,0.062897,-0.026487,0,-0.00041113,0,0,0,0.036808,0.00010182,0.011073,-0.16129,0.015994,0.032642,1.1733e-06,0.61,0.67,0
0.025793,-0.0058936,0.035735,0.0008442,0.010974,-1.3485e-05,0,0,0.064379,-0.026337,0,-7.0124e-05,0,0,0,0.035737,0.00084161,0.010974,-0.028728,0.015851,0.031094,1.0105e-06,0.62,0.67,0
0.026431,-0.0058119,0.035367,0.0013128,0.011004,-0.00011512,0,0,0.063345,-0.025197,0,-0.0005986,0,0,0,0.035369,0.0013107,0.011004,-0.19803,0.015895,0.030395,9.635e-07,0.63,0.67,0
0.02706,-0.0057445,0.035142,0.0015888,0.011019,-0.00027645,0,0,0.062719,-0.024519,0,-0.0014376,0,0,0,0.035145,0.0015858,0.011019,-0.47411,0.015917,0.029977,9.359e-07,0.64,0.67,0
0.027685,-0.0056928,0.035034,0.0016635,0.011009,-0.00043209,0,0,0.062464,-0.024299,0,-0.0022469,0,0,0,0.03504,0.0016576,0.011009,-0.74221,0.015902,0.029827,9.2501e-07,0.65,0.67,0
0.02831,-0.0056552,0.035002,0.0016276,0.010989,-0.00054834,0,0,0.062434,-0.024339,0,-0.0028513,0,0,0,0.035011,0.0016184,0.010989,-0.94095,0.015873,0.029832,9.2395e-07,0.66,0.67,0
0.028934,-0.0056292,0.035002,0.0015278,0.010959,-0.00062684,0,0,0.062511,-0.024521,0,-0.0032596,0,0,0,0.035013,0.001516,0.010959,-1.0722,0.015829,0.029916,9.2744e-07,0.67,0.67,0
0.02956,-0.0056125,0.035013,0.0013862,0.01092,-0.00067585,0,0,0.062643,-0.024788,0,-0.0035144,0,0,0,0.035027,0.0013726,0.01092,-1.1507,0.015773,0.030041,9.3313e-07,0.68,0.67,0
0.030187,-0.0056034,0.03503,0.0012197,0.010875,-0.00070119,0,0,0.062803,-0.025104,0,-0.0036462,0,0,0,0.035045,0.0012052,0.010875,-1.1874,0.015708,0.030189,9.399e-07,0.69,0.67,0
0.030816,-0.0056003,0.035048,0.0010409,0.010827,-0.00070739,0,0,0.062975,-0.025443,0,-0.0036784,0,0,0,0.035063,0.0010262,0.010827,-1.1911,0.015639,0.030347,9.4704e-07,0.7,0.67,0
0.031446,-0.0056019,0.035064,0.00085847,0.010777,-0.00069857,0,0,0.063147,-0.025787,0,-0.0036325,0,0,0,0.035078,0.0008442,0.010777,-1.1695,0.015566,0.030506,9.5402e-07,0.71,0.67,0
0.032079,-0.0056071,0.035076,0.0006781,0.010726,-0.00067833,0,0,0.063309,-0.026125,0,-0.0035273,0,0,0,0.035089,0.00066472,0.010726,-1.1294,0.015493,0.030658,9.6054e-07,0.72,0.67,0
0.032713,-0.0056151,0.035083,0.00050349,0.010676,-0.00064973,0,0,0.063459,-0.026449,0,-0.0033786,0,0,0,0.035096,0.00049127,0.010676,-1.0762,0.015421,0.030802,9.6642e-07,0.73,0.67,0
0.033348,-0.005625,0.035086,0.00033696,0.010627,-0.0006153,0,0,0.063594,-0.026754,0,-0.0031995,0,0,0,0.035097,0.00032605,0.010627,-1.0143,0.01535,0.030935,9.7157e-07,0.74,0.67,0
0.033985,-0.0056364,0.035083,0.00017988,0.010579,-0.00057702,0,0,0.063712,-0.027038,0,-0.0030005,0,0,0,0.035093,0.00017031,0.010579,-0.94704,0.015281,0.031055,9.7598e-07,0.75,0.67,0
0.034622,-0.0056486,0.035076,3.2966e-05,0.010533,-0.0005365,0,0,0.063813,-0.0273,0,-0.0027898,0,0,0,0.035085,2.4725e-05,0.010533,-0.87709,0.015214,0.031164,9.7965e-07,0.76,0.67,0
0.035261,-0.0056614,0.035065,-0.0001035,0.010488,-0.00049499,0,0,0.063899,-0.027539,0,-0.002574,0,0,0,0.035072,-0.00011049,0.010488,-0.80639,0.01515,0.031261,9.8263e-07,0.77,0.67,0
0.0359,-0.0056745,0.03505,-0.00022953,0.010446,-0.00045347,0,0,0.06397,-0.027757,0,-0.002358,0,0,0,0.035056,-0.00023539,0.010446,-0.73646,0.015089,0.031346,9.8497e-07,0.78,0.67,0
0.03654,-0.0056875,0.035032,-0.00034539,0.010406,-0.00041268,0,0,0.064027,-0.027953,0,-0.002146,0,0,0,0.035037,-0.00035023,0.010406,-0.6684,0.015031,0.031421,9.8673e-07,0.79,0.67,0
0.037181,-0.0057003,0.035011,-0.00045142,0.010368,-0.00037321,0,0,0.064072,-0.02813,0,-0.0019407,0,0,0,0.035015,-0.00045538,0.010368,-0.60303,0.014976,0.031486,9.8797e-07,0.8,0.67,0
0.037822,-0.0057127,0.034988,-0.00054811,0.010332,-0.00033547,0,0,0.064106,-0.028288,0,-0.0017444,0,0,0,0.034991,-0.00055131,0.010332,-0.54093,0.014924,0.031542,9.8876e-07,0.81,0.67,0
0.038463,-0.0057246,0.034964,-0.00063597,0.010298,-0.00029975,0,0,0.06413,-0.028429,0,-0.0015587,0,0,0,0.034966,-0.00063852,0.010298,-0.48249,0.014875,0.03159,9.8916e-07,0.82,0.67,0
0.039104,-0.005736,0.034938,-0.00071552,0.010267,-0.00026628,0,0,0.064146,-0.028554,0,-0.0013846,0,0,0,0.03494,-0.00071754,0.010267,-0.42796,0.01483,0.03163,9.8922e-07,0.83,0.67,0
0.039746,-0.0057467,0.034912,-0.00078733,0.010237,-0.00023515,0,0,0.064154,-0.028664,0,-0.0012228,0,0,0,0.034914,-0.0007889,0.010237,-0.37746,0.014787,0.031664,9.8901e-07,0.84,0.67,0
0.040387,-0.0057568,0.034886,-0.00085192,0.01021,-0.00020644,0,0,0.064157,-0.028762,0,-0.0010735,0,0,0,0.034887,-0.00085314,0.01021,-0.33101,0.014748,0.031692,9.8857e-07,0.85,0.67,0
0.041029,-0.0057662,0.03486,-0.00090983,0.010185,-0.00018014,0,0,0.064155,-0.028847,0,-0.00093675,0,0,0,0.034861,-0.00091075,0.010185,-0.28859,0.014712,0.031714,9.8796e-07,0.86,0.67,0
0.04167,-0.0057749,0.034834,-0.00096154,0.010162,-0.00015622,0,0,0.064148,-0.028921,0,-0.00081232,0,0,0,0.034835,-0.00096224,0.010162,-0.25007,0.014678,0.031733,9.8722e-07,0.87,0.67,0
0.042312,-0.0057828,0.034809,-0.0010075,0.010141,-0.00013458,0,0,0.064139,-0.028985,0,-0.00069984,0,0,0,0.03481,-0.001008,0.010141,-0.21531,0.014647,0.031747,9.8639e-07,0.88,0.67,0
0.042953,-0.0057901,0.034786,-0.0010482,0.010121,-0.00011514,0,0,0.064127,-0.029041,0,-0.00059875,0,0,0,0.034786,-0.0010486,0.010121,-0.18412,0.01462,0.031759,9.855e-07,0.89,0.67,0
0.043594,-0.0057966,0.034763,-0.0010841,0.010104,-9.7766e-05,0,0,0.064114,-0.029088,0,-0.00050838,0,0,0,0.034763,-0.0010843,0.010104,-0.15627,0.014594,0.031767,9.8459e-07,0.9,0.67,0
0.044235,-0.0058025,0.034742,-0.0011154,0.010088,-8.2306e-05,0,0,0.064101,-0.029129,0,-0.00042799,0,0,0,0.034742,-0.0011156,0.010088,-0.13152,0.014572,0.031774,9.8368e-07,0.91,0.67,0
0.044876,-0.0058077,0.034723,-0.0011425,0.010074,-6.8602e-05,0,0,0.064087,-0.029163,0,-0.00035673,0,0,0,0.034723,-0.0011426,0.010074,-0.1096,0.014552,0.031779,9.8281e-07,0.92,0.67,0
0.045517,-0.0058122,0.034706,-0.0011657,0.010062,-5.6483e-05,0,0,0.064074,-0.029192,0,-0.00029371,0,0,0,0.034706,-0.0011658,0.010062,-0.090219,0.014534,0.031782,9.8199e-07,0.93,0.67,0
0.046158,-0.0058161,0.034691,-0.0011853,0.010052,-4.5766e-05,0,0,0.064061,-0.029216,0,-0.00023798,0,0,0,0.034691,-0.0011854,0.010052,-0.073091,0.014519,0.031784,9.8124e-07,0.94,0.67,0
0.046798,-0.0058194,0.034678,-0.0012016,0.010043,-3.6262e-05,0,0,0.06405,-0.029235,0,-0.00018856,0,0,0,0.034678,-0.0012016,0.010043,-0.057908,0.014506,0.031785,9.8058e-07,0.95,0.67,0
0.047439,-0.005822,0.034667,-0.0012146,0.010036,-2.7777e-05,0,0,0.064041,-0.029251,0,-0.00014444,0,0,0,0.034667,-0.0012146,0.010036,-0.044355,0.014496,0.031786,9.8002e-07,0.96,0.67,0
0.048079,-0.0058241,0.034658,-0.0012245,0.01003,-2.0112e-05,0,0,0.064033,-0.029262,0,-0.00010458,0,0,0,0.034658,-0.0012246,0.01003,-0.032113,0.014488,0.031787,9.7958e-07,0.97,0.67,0
0.04872,-0.0058255,0.034652,-0.0012316,0.010026,-1.3064e-05,0,0,0.064027,-0.02927,0,-6.7933e-05,0,0,0,0.034652,-0.0012316,0.010026,-0.020859,0.014482,0.031787,9.7925e-07,0.98,0.67,0
0.04936,-0.0058264,0.034648,-0.0012358,0.010024,-7.8178e-06,0,0,0.064024,-0.029275,0,-4.0653e-05,0,0,0,0.034648,-0.0012358,0.010024,-0.012482,0.014479,0.031787,9.7906e-07,0.99,0.67,0
0.04968,-0.0058267,0.034647,-0.0012371,0.010023,-5.9668e-06,0,0,0.064023,-0.029276,0,-3.1027e-05,0,0,0,0.034647,-0.0012371,0.010023,-0.0095268,0.014478,0.031787,9.7899e-07,1,0.67,0
0.00022658,-6.3938e-05,0.030486,0.012887,0.013012,-0.0024539,0,0,0.045434,-0.00032583,0,-0.01276,0,0,0,0.030823,0.01255,0.013012,-7.7911,0.018795,0.018046,3.0116e-07,0,0.68,0
0.00045434,-0.00012716,0.03051,0.012712,0.012967,-0.00244,0,0,0.045613,-0.00066187,0,-0.012688,0,0,0,0.030839,0.012383,0.012967,-7.6684,0.018729,0.018172,3.071e-07,0.01,0.68,0
0.00091225,-0.00025207,0.030595,0.012369,0.012889,-0.0024006,0,0,0.046034,-0.0013514,0,-0.012483,0,0,0,0.030906,0.012058,0.012889,-7.3822,0.018618,0.018447,3.2023e-07,0.02,0.68,0
0.001375,-0.00037371,0.030716,0.012027,0.012823,-0.0023441,0,0,0.046523,-0.0020703,0,-0.01219,0,0,0,0.031006,0.011736,0.012823,-7.0443,0.018522,0.018751,3.3479e-07,0.03,0.68,0
0.0018427,-0.0004917,0.030834,0.011671,0.012752,-0.0022767,0,0,0.047014,-0.0028087,0,-0.011839,0,0,0,0.031102,0.011404,0.012752,-6.6867,0.018419,0.01906,3.4965e-07,0.04,0.68,0
0.0023153,-0.00060565,0.030946,0.011307,0.012676,-0.0021983,0,0,0.047501,-0.0035584,0,-0.011431,0,0,0,0.031189,0.011063,0.012676,-6.3129,0.01831,0.019371,3.646e-07,0.05,0.68,0
0.0027927,-0.0007152,0.031049,0.010937,0.012596,-0.0021088,0,0,0.047978,-0.0043129,0,-0.010966,0,0,0,0.031268,0.010717,0.012596,-5.9252,0.018194,0.019679,3.7943e-07,0.06,0.68,0
0.0032749,-0.00082,0.031141,0.010562,0.012511,-0.0020082,0,0,0.048438,-0.0050671,0,-0.010443,0,0,0,0.031336,0.010367,0.012511,-5.5252,0.018071,0.019984,3.94e-07,0.07,0.68,0
0.0037615,-0.00091969,0.03122,0.010184,0.012421,-0.0018966,0,0,0.048877,-0.005817,0,-0.0098626,0,0,0,0.03139,0.010014,0.012421,-5.1144,0.017942,0.020281,4.0813e-07,0.08,0.68,0
0.0042524,-0.001014,0.031285,0.0098035,0.012326,-0.0017745,0,0,0.049291,-0.0065596,0,-0.0092275,0,0,0,0.031431,0.0096573,0.012326,-4.6941,0.017805,0.02057,4.2172e-07,0.09,0.68,0
0.0047473,-0.0011026,0.031333,0.0094211,0.012226,-0.0016424,0,0,0.049677,-0.0072933,0,-0.0085405,0,0,0,0.031456,0.009298,0.012226,-4.2663,0.01766,0.020849,4.3464e-07,0.1,0.68,0
0.0052459,-0.0011855,0.031363,0.0090362,0.01212,-0.0015013,0,0,0.050032,-0.0080172,0,-0.007807,0,0,0,0.031464,0.0089351,0.01212,-3.8333,0.017506,0.021118,4.4681e-07,0.11,0.68,0
0.005748,-0.0012623,0.031373,0.0086484,0.012006,-0.0013528,0,0,0.050353,-0.008731,0,-0.0070348,0,0,0,0.031454,0.0085675,0.012006,-3.3984,0.017343,0.021376,4.5815e-07,0.12,0.68,0
0.006253,-0.0013333,0.031362,0.0082566,0.011886,-0.0011991,0,0,0.050638,-0.0094352,0,-0.0062351,0,0,0,0.031425,0.0081938,0.011886,-2.9663,0.017168,0.021623,4.6859e-07,0.13,0.68,0
0.0067607,-0.0013985,0.031327,0.0078598,0.011756,-0.0010429,0,0,0.050884,-0.01013,0,-0.0054233,0,0,0,0.031374,0.0078128,0.011756,-2.5432,0.016981,0.021858,4.7802e-07,0.14,0.68,0
0.0072707,-0.0014583,0.031266,0.0074574,0.011617,-0.00088836,0,0,0.051087,-0.010815,0,-0.0046195,0,0,0,0.0313,0.0074236,0.011617,-2.1375,0.01678,0.022081,4.8633e-07,0.15,0.68,0
0.0077825,-0.0015135,0.031176,0.0070496,0.011468,-0.00074012,0,0,0.051241,-0.011487,0,-0.0038486,0,0,0,0.031199,0.0070262,0.011468,-1.7591,0.016564,0.022287,4.9329e-07,0.16,0.68,0
0.0082955,-0.001565,0.031052,0.0066387,0.011307,-0.00060364,0,0,0.051336,-0.012138,0,-0.0031389,0,0,0,0.031068,0.006623,0.011307,-1.4193,0.016333,0.022472,4.9852e-07,0.17,0.68,0
0.0088092,-0.0016141,0.030887,0.0062305,0.011135,-0.00048357,0,0,0.051355,-0.012753,0,-0.0025146,0,0,0,0.030898,0.00622,0.011135,-1.1272,0.016084,0.022625,5.0145e-07,0.18,0.68,0
0.0093226,-0.0016624,0.030676,0.0058345,0.010953,-0.00038111,0,0,0.05128,-0.013309,0,-0.0019818,0,0,0,0.030683,0.0058273,0.010953,-0.88354,0.015821,0.022731,5.0141e-07,0.19,0.68,0
0.0098348,-0.0017117,0.030417,0.0054602,0.010763,-0.00029251,0,0,0.051101,-0.013788,0,-0.001521,0,0,0,0.030423,0.0054548,0.010763,-0.67775,0.015547,0.022783,4.9808e-07,0.2,0.68,0
0.010345,-0.001764,0.030113,0.0051014,0.010564,-0.00021353,0,0,0.050827,-0.014204,0,-0.0011103,0,0,0,0.030118,0.0050971,0.010564,-0.49763,0.01526,0.022784,4.918e-07,0.21,0.68,0
0.010851,-0.0018215,0.029761,0.0047393,0.01035,-0.00015006,0,0,0.050469,-0.014588,0,-0.00078032,0,0,0,0.029765,0.0047355,0.01035,-0.35462,0.01495,0.022748,4.8304e-07,0.22,0.68,0
0.011354,-0.0018876,0.02936,0.0043894,0.010125,-0.00011017,0,0,0.050012,-0.014912,0,-0.00057289,0,0,0,0.029364,0.0043852,0.010125,-0.26729,0.014625,0.022661,4.7148e-07,0.23,0.68,0
0.011852,-0.0019654,0.028934,0.0041031,0.0099113,-7.5811e-05,0,0,0.04946,-0.015101,0,-0.00039422,0,0,0,0.028939,0.0040984,0.0099113,-0.19514,0.014316,0.022505,4.5728e-07,0.24,0.68,0
0.012343,-0.0020574,0.028512,0.0038343,0.0097038,-1.2841e-05,0,0,0.048901,-0.015261,0,-6.6776e-05,0,0,0,0.028516,0.0038298,0.0097038,-0.055207,0.014017,0.022337,4.4301e-07,0.25,0.68,0
0.01283,-0.0021662,0.028098,0.0034646,0.0094688,6.6915e-05,0,0,0.048436,-0.015611,0,0.00034796,0,0,0,0.028102,0.0034611,0.0094688,0.12944,0.013677,0.022254,4.3164e-07,0.26,0.68,0
0.013312,-0.0022968,0.027744,0.0030195,0.009229,0.00011972,0,0,0.048138,-0.016145,0,0.00062256,0,0,0,0.027746,0.0030168,0.009229,0.25559,0.013331,0.022283,4.2463e-07,0.27,0.68,0
0.013792,-0.0024543,0.027513,0.0024322,0.0089834,0.00018606,0,0,0.048176,-0.017033,0,0.00096753,0,0,0,0.027515,0.0024293,0.0089834,0.40737,0.012976,0.022537,4.2621e-07,0.28,0.68,0
0.014275,-0.0026368,0.027649,0.0015336,0.0087548,0.00044516,0,0,0.048028,-0.018278,0,0.0022137,0,0,0,0.027661,0.0015219,0.0087548,0.94321,0.012646,0.02338,4.6066e-07,0.29,0.68,0
0.014757,-0.0028208,0.027911,0.0001474,0.0084174,0.00087471,0,0,0.04486,-0.018457,0,0.00373,0,0,0,0.027951,0.00010734,0.0084174,1.7206,0.012159,0.024775,5.2002e-07,0.3,0.68,0
0.015181,-0.0029761,0.027748,-0.0012993,0.0079346,0.0011577,0,0,0.037261,-0.016516,0,0.0040888,0,0,0,0.027818,-0.0013696,0.0079346,2.2185,0.011461,0.025852,5.456e-07,0.31,0.68,0
0.015506,-0.0031012,0.027959,-0.001824,0.0078405,0.0012872,0,0,0.030081,-0.014081,0,0.0039166,0,0,0,0.028039,-0.001904,0.0078405,2.5215,0.011325,0.026466,5.5517e-07,0.32,0.68,0
0.015779,-0.0032157,0.029055,-0.0015773,0.0082432,0.0014514,0,0,0.027608,-0.012996,0,0.0039722,0,0,0,0.029139,-0.0016617,0.0082432,2.7688,0.011907,0.027235,6.0089e-07,0.33,0.68,0
0.016055,-0.0033315,0.030192,-0.0012314,0.008688,0.0016093,0,0,0.027955,-0.012895,0,0.0041842,0,0,0,0.030285,-0.0013253,0.008688,2.9363,0.012549,0.027982,6.5995e-07,0.34,0.68,0
0.016338,-0.00345,0.031027,-0.00095377,0.0090221,0.0017322,0,0,0.028607,-0.012969,0,0.0045037,0,0,0,0.031131,-0.001057,0.0090221,3.0973,0.013032,0.028517,7.0957e-07,0.35,0.68,0
0.016628,-0.0035693,0.031748,-0.00082837,0.0092759,0.00184,0,0,0.029214,-0.013136,0,0.0047839,0,0,0,0.031859,-0.00093975,0.0092759,3.2248,0.013399,0.02907,7.572e-07,0.36,0.68,0
0.016923,-0.0036882,0.032413,-0.00083269,0.009474,0.0018982,0,0,0.02982,-0.013399,0,0.0049353,0,0,0,0.032527,-0.00094688,0.009474,3.2572,0.013685,0.029669,8.0538e-07,0.37,0.68,0
0.017224,-0.0038071,0.033024,-0.00089121,0.0096397,0.0018855,0,0,0.030399,-0.01369,0,0.0049022,0,0,0,0.033133,-0.0010006,0.0096397,3.1713,0.013924,0.030251,8.5203e-07,0.38,0.68,0
0.017531,-0.003927,0.033572,-0.0009592,0.0097838,0.0018044,0,0,0.030925,-0.013966,0,0.0046913,0,0,0,0.03367,-0.0010572,0.0097838,2.9816,0.014132,0.030774,8.9508e-07,0.39,0.68,0
0.017842,-0.0040488,0.034058,-0.0010018,0.0099169,0.0016647,0,0,0.031383,-0.014194,0,0.0043282,0,0,0,0.03414,-0.0010839,0.0099169,2.7107,0.014324,0.031213,9.3333e-07,0.4,0.68,0
0.018158,-0.0041733,0.034482,-0.00098869,0.010048,0.0014806,0,0,0.031764,-0.014348,0,0.0038496,0,0,0,0.034546,-0.0010531,0.010048,2.3841,0.014514,0.031549,9.6579e-07,0.41,0.68,0
0.018478,-0.0043009,0.034844,-0.00089671,0.010184,0.0012725,0,0,0.032058,-0.014405,0,0.0033085,0,0,0,0.034892,-0.00094406,0.010184,2.0342,0.014711,0.031769,9.9163e-07,0.42,0.68,0
0.0188,-0.0044315,0.035147,-0.00071698,0.010329,0.0010668,0,0,0.032264,-0.01436,0,0.0027736,0,0,0,0.035181,-0.00075019,0.010329,1.6998,0.01492,0.03187,1.0107e-06,0.43,0.68,0
0.019123,-0.0045645,0.035399,-0.00046157,0.010481,0.00089041,0,0,0.032393,-0.014226,0,0.0023151,0,0,0,0.035422,-0.00048463,0.010481,1.4193,0.01514,0.031872,1.0236e-06,0.44,0.68,0
0.019447,-0.0046989,0.035611,-0.00016196,0.010635,0.00076287,0,0,0.032469,-0.014036,0,0.0019835,0,0,0,0.035628,-0.00017883,0.010635,1.2194,0.015361,0.03181,1.0322e-06,0.45,0.68,0
0.019772,-0.0048333,0.035799,0.00014243,0.010782,0.00069029,0,0,0.032521,-0.013832,0,0.0017948,0,0,0,0.035813,0.00012864,0.010782,1.1074,0.015575,0.031728,1.0387e-06,0.46,0.68,0
0.020098,-0.0049665,0.035974,0.00041933,0.010918,0.00066613,0,0,0.032573,-0.013648,0,0.0017319,0,0,0,0.035987,0.00040647,0.010918,1.0719,0.01577,0.031662,1.0451e-06,0.47,0.68,0
0.020424,-0.0050974,0.036146,0.00065254,0.011039,0.00067767,0,0,0.032638,-0.013503,0,0.0017619,0,0,0,0.036159,0.0006392,0.011039,1.0925,0.015946,0.031629,1.0526e-06,0.48,0.68,0
0.020751,-0.0052252,0.036318,0.00083985,0.011147,0.0007134,0,0,0.032722,-0.0134,0,0.0018548,0,0,0,0.036333,0.00082508,0.011147,1.1505,0.016102,0.031636,1.0618e-06,0.49,0.68,0
0.021078,-0.0053495,0.036495,0.00098244,0.011243,0.00076556,0,0,0.032827,-0.013339,0,0.0019904,0,0,0,0.036512,0.00096548,0.011243,1.2333,0.01624,0.031683,1.0729e-06,0.5,0.68,0
0.021407,-0.0054698,0.036673,0.0010773,0.011325,0.00082623,0,0,0.032953,-0.013322,0,0.0021482,0,0,0,0.036693,0.0010576,0.011325,1.3277,0.016359,0.031771,1.086e-06,0.51,0.68,0
0.021737,-0.0055859,0.036846,0.0011261,0.011392,0.00088548,0,0,0.033091,-0.013345,0,0.0023022,0,0,0,0.036868,0.0011037,0.011392,1.4179,0.016455,0.03189,1.1002e-06,0.52,0.68,0
0.022069,-0.0056978,0.037005,0.0011564,0.011449,0.00094139,0,0,0.033224,-0.01338,0,0.0024476,0,0,0,0.037031,0.0011313,0.011449,1.502,0.016537,0.032013,1.114e-06,0.53,0.68,0
0.022402,-0.0058051,0.03716,0.0011937,0.011506,0.001012,0,0,0.03335,-0.013406,0,0.0026312,0,0,0,0.037188,0.0011649,0.011506,1.6095,0.01662,0.032126,1.1273e-06,0.54,0.68,0
0.022736,-0.0059073,0.037308,0.0011838,0.011548,0.0011105,0,0,0.033489,-0.013473,0,0.0028872,0,0,0,0.037343,0.0011493,0.011548,1.7578,0.01668,0.032276,1.1421e-06,0.55,0.68,0
0.023072,-0.0060039,0.03744,0.0010578,0.011549,0.0012032,0,0,0.033657,-0.013639,0,0.0031283,0,0,0,0.03748,0.0010178,0.011549,1.8908,0.016682,0.032502,1.1597e-06,0.56,0.68,0
0.023409,-0.0060956,0.037502,0.00086956,0.011511,0.0012572,0,0,0.033788,-0.013834,0,0.0032688,0,0,0,0.037545,0.00082614,0.011511,1.9622,0.016628,0.032713,1.1729e-06,0.57,0.68,0
0.023747,-0.006183,0.037095,0.00062713,0.011317,0.0013104,0,0,0.034261,-0.014217,0,0.003478,0,0,0,0.037143,0.00057938,0.011317,2.0551,0.016346,0.032551,1.1546e-06,0.58,0.68,0
0.024091,-0.0062581,0.036436,0.00013283,0.010971,0.0011805,0,0,0.038321,-0.016026,0,0.0036057,0,0,0,0.036494,7.5224e-05,0.010971,1.9467,0.015846,0.032392,1.1501e-06,0.59,0.68,0
0.02451,-0.0062898,0.036547,-0.00019862,0.010904,0.00072175,0,0,0.048634,-0.020343,0,0.0028359,0,0,0,0.036598,-0.00024948,0.010904,1.2915,0.015751,0.032758,1.2002e-06,0.6,0.68,0
0.02507,-0.0062497,0.036775,0.00019253,0.01109,0.00035375,0,0,0.059426,-0.024767,0,0.0017235,0,0,0,0.036796,0.00017216,0.01109,0.62727,0.016019,0.032583,1.1781e-06,0.61,0.68,0
0.025711,-0.0061587,0.036224,0.00091235,0.011141,0.00024616,0,0,0.063859,-0.026016,0,0.0012281,0,0,0,0.036227,0.00090934,0.011141,0.3954,0.016092,0.031475,1.0627e-06,0.62,0.68,0
0.026352,-0.0060641,0.035705,0.0014996,0.011161,8.4474e-05,0,0,0.063814,-0.025121,0,0.00043926,0,0,0,0.035707,0.0014978,0.011161,0.13764,0.016122,0.030547,9.8521e-07,0.63,0.68,0
0.026987,-0.0059897,0.035551,0.0017804,0.011199,-0.00016994,0,0,0.063314,-0.02449,0,-0.00088369,0,0,0,0.035553,0.0017784,0.011199,-0.28982,0.016177,0.030188,9.6298e-07,0.64,0.68,0
0.027619,-0.0059363,0.03547,0.0017995,0.011181,-0.00037915,0,0,0.063151,-0.024391,0,-0.0019716,0,0,0,0.035474,0.0017947,0.011181,-0.64569,0.01615,0.030105,9.5598e-07,0.65,0.68,0
0.02825,-0.0058993,0.03542,0.0017297,0.011145,-0.0005203,0,0,0.063116,-0.02448,0,-0.0027056,0,0,0,0.035429,0.0017214,0.011145,-0.88484,0.016098,0.030122,9.5465e-07,0.66,0.68,0
0.028881,-0.0058752,0.03538,0.0015979,0.011093,-0.00061475,0,0,0.063145,-0.024688,0,-0.0031967,0,0,0,0.035391,0.0015866,0.011093,-1.0423,0.016024,0.030195,9.5599e-07,0.67,0.68,0
0.029513,-0.0058613,0.035351,0.0014268,0.011033,-0.00067381,0,0,0.063225,-0.024977,0,-0.0035038,0,0,0,0.035364,0.0014134,0.011033,-1.1375,0.015937,0.030308,9.5943e-07,0.68,0.68,0
0.030146,-0.0058555,0.035331,0.0012361,0.01097,-0.00070363,0,0,0.063339,-0.025309,0,-0.0036589,0,0,0,0.035346,0.0012216,0.01097,-1.1818,0.015846,0.030444,9.6415e-07,0.69,0.68,0
0.03078,-0.0058558,0.035317,0.0010386,0.010907,-0.00071023,0,0,0.063467,-0.025657,0,-0.0036932,0,0,0,0.035332,0.0010239,0.010907,-1.1866,0.015754,0.030588,9.6934e-07,0.7,0.68,0
0.031415,-0.0058609,0.035304,0.00084212,0.010844,-0.00069931,0,0,0.063596,-0.026004,0,-0.0036364,0,0,0,0.035318,0.00082792,0.010844,-1.1622,0.015663,0.030732,9.7443e-07,0.71,0.68,0
0.032051,-0.0058695,0.03529,0.00065158,0.010782,-0.00067566,0,0,0.063719,-0.02634,0,-0.0035134,0,0,0,0.035303,0.00063839,0.010782,-1.1173,0.015575,0.030869,9.7912e-07,0.72,0.68,0
0.032689,-0.0058806,0.035273,0.00046987,0.010723,-0.00064309,0,0,0.06383,-0.026658,0,-0.0033441,0,0,0,0.035285,0.00045796,0.010723,-1.0585,0.015489,0.030997,9.8325e-07,0.73,0.68,0
0.033328,-0.0058936,0.035253,0.00029863,0.010666,-0.00060456,0,0,0.063928,-0.026954,0,-0.0031437,0,0,0,0.035264,0.00028814,0.010666,-0.99082,0.015406,0.031113,9.8672e-07,0.74,0.68,0
0.033968,-0.0059077,0.035231,0.00013872,0.010611,-0.00056236,0,0,0.064012,-0.027228,0,-0.0029243,0,0,0,0.03524,0.00012967,0.010611,-0.91812,0.015327,0.031218,9.8955e-07,0.75,0.68,0
0.034608,-0.0059225,0.035206,-9.5589e-06,0.010559,-0.00051825,0,0,0.064082,-0.027478,0,-0.0026949,0,0,0,0.035213,-1.7228e-05,0.010559,-0.84319,0.015252,0.031312,9.9174e-07,0.76,0.68,0
0.035249,-0.0059377,0.035178,-0.00014625,0.010509,-0.00047357,0,0,0.064137,-0.027705,0,-0.0024626,0,0,0,0.035184,-0.00015265,0.010509,-0.76817,0.01518,0.031394,9.9334e-07,0.77,0.68,0
0.035891,-0.0059528,0.035148,-0.00027166,0.010463,-0.00042936,0,0,0.064181,-0.02791,0,-0.0022327,0,0,0,0.035153,-0.00027691,0.010463,-0.69461,0.015113,0.031466,9.9439e-07,0.78,0.68,0
0.036533,-0.0059677,0.035116,-0.00038622,0.010419,-0.00038638,0,0,0.064212,-0.028093,0,-0.0020092,0,0,0,0.03512,-0.00039047,0.010419,-0.62363,0.015049,0.031528,9.9496e-07,0.79,0.68,0
0.037175,-0.0059822,0.035083,-0.00049049,0.010378,-0.0003452,0,0,0.064233,-0.028257,0,-0.001795,0,0,0,0.035086,-0.00049388,0.010378,-0.55606,0.01499,0.03158,9.951e-07,0.8,0.68,0
0.037818,-0.0059961,0.035049,-0.00058506,0.010339,-0.00030622,0,0,0.064245,-0.028403,0,-0.0015924,0,0,0,0.035051,-0.00058773,0.010339,-0.49245,0.014934,0.031625,9.9488e-07,0.81,0.68,0
0.03846,-0.0060094,0.035014,-0.00067056,0.010303,-0.00026973,0,0,0.064249,-0.028531,0,-0.0014026,0,0,0,0.035016,-0.00067264,0.010303,-0.43315,0.014882,0.031661,9.9435e-07,0.82,0.68,0
0.039103,-0.006022,0.03498,-0.00074762,0.01027,-0.00023589,0,0,0.064246,-0.028645,0,-0.0012266,0,0,0,0.034981,-0.00074921,0.01027,-0.37836,0.014834,0.031692,9.9357e-07,0.83,0.68,0
0.039745,-0.0060338,0.034945,-0.00081686,0.010239,-0.0002048,0,0,0.064237,-0.028744,0,-0.001065,0,0,0,0.034946,-0.00081807,0.010239,-0.32817,0.014789,0.031716,9.9258e-07,0.84,0.68,0
0.040387,-0.0060448,0.034911,-0.00087888,0.01021,-0.00017648,0,0,0.064224,-0.02883,0,-0.0009177,0,0,0,0.034912,-0.00087978,0.01021,-0.28257,0.014747,0.031735,9.9144e-07,0.85,0.68,0
0.04103,-0.006055,0.034879,-0.00093425,0.010183,-0.0001509,0,0,0.064208,-0.028906,0,-0.00078466,0,0,0,0.034879,-0.0009349,0.010183,-0.24145,0.014709,0.03175,9.902e-07,0.86,0.68,0
0.041672,-0.0060643,0.034847,-0.00098349,0.010159,-0.00012798,0,0,0.064188,-0.028971,0,-0.00066549,0,0,0,0.034847,-0.00098397,0.010159,-0.20467,0.014674,0.031761,9.8888e-07,0.87,0.68,0
0.042313,-0.0060729,0.034817,-0.0010271,0.010137,-0.00010762,0,0,0.064168,-0.029026,0,-0.00055961,0,0,0,0.034817,-0.0010275,0.010137,-0.17204,0.014642,0.031769,9.8753e-07,0.88,0.68,0
0.042955,-0.0060807,0.034788,-0.0010656,0.010117,-8.9683e-05,0,0,0.064146,-0.029074,0,-0.00046635,0,0,0,0.034788,-0.0010658,0.010117,-0.14333,0.014613,0.031775,9.8618e-07,0.89,0.68,0
0.043596,-0.0060877,0.034762,-0.0010993,0.010099,-7.4019e-05,0,0,0.064124,-0.029115,0,-0.0003849,0,0,0,0.034762,-0.0010995,0.010099,-0.11827,0.014587,0.031778,9.8486e-07,0.9,0.68,0
0.044237,-0.0060939,0.034737,-0.0011287,0.010082,-6.0455e-05,0,0,0.064102,-0.029149,0,-0.00031436,0,0,0,0.034737,-0.0011288,0.010082,-0.096579,0.014564,0.03178,9.8359e-07,0.91,0.68,0
0.044878,-0.0060994,0.034715,-0.0011541,0.010068,-4.8806e-05,0,0,0.064081,-0.029178,0,-0.00025379,0,0,0,0.034715,-0.0011542,0.010068,-0.07796,0.014543,0.03178,9.824e-07,0.92,0.68,0
0.045519,-0.0061042,0.034695,-0.0011758,0.010056,-3.8878e-05,0,0,0.064061,-0.029202,0,-0.00020217,0,0,0,0.034695,-0.0011759,0.010056,-0.062097,0.014525,0.03178,9.8131e-07,0.93,0.68,0
0.04616,-0.0061083,0.034677,-0.0011941,0.010045,-3.0469e-05,0,0,0.064043,-0.029221,0,-0.00015844,0,0,0,0.034677,-0.0011941,0.010045,-0.048664,0.014509,0.031779,9.8032e-07,0.94,0.68,0
0.0468,-0.0061117,0.034662,-0.0012091,0.010036,-2.3372e-05,0,0,0.064028,-0.029237,0,-0.00012153,0,0,0,0.034662,-0.0012092,0.010036,-0.037327,0.014496,0.031778,9.7947e-07,0.95,0.68,0
0.04744,-0.0061145,0.034649,-0.0012212,0.010028,-1.7372e-05,0,0,0.064015,-0.029249,0,-9.0335e-05,0,0,0,0.034649,-0.0012212,0.010028,-0.027744,0.014486,0.031776,9.7876e-07,0.96,0.68,0
0.04808,-0.0061167,0.03464,-0.0012304,0.010023,-1.2254e-05,0,0,0.064004,-0.029258,0,-6.3723e-05,0,0,0,0.03464,-0.0012304,0.010023,-0.019571,0.014477,0.031775,9.7819e-07,0.97,0.68,0
0.04872,-0.0061182,0.034633,-0.0012369,0.010019,-7.8002e-06,0,0,0.063996,-0.029265,0,-4.0561e-05,0,0,0,0.034633,-0.0012369,0.010019,-0.012457,0.014472,0.031774,9.7778e-07,0.98,0.68,0
0.04936,-0.0061191,0.034629,-0.0012408,0.010016,-5.2455e-06,0,0,0.063992,-0.029269,0,-2.7277e-05,0,0,0,0.034629,-0.0012408,0.010016,-0.0083776,0.014468,0.031773,9.7753e-07,0.99,0.68,0
0.04968,-0.0061194,0.034627,-0.0012421,0.010016,-4.7795e-06,0,0,0.06399,-0.02927,0,-2.4853e-05,0,0,0,0.034627,-0.0012421,0.010016,-0.0076339,0.014467,0.031773,9.7745e-07,1,0.68,0
0.0002262,-6.7259e-05,0.030434,0.012856,0.012987,-0.0025812,0,0,0.045363,-0.0003404,0,-0.013422,0,0,0,0.030806,0.012485,0.012987,-8.1836,0.018759,0.018076,3.0252e-07,0,0.69,0
0.00045363,-0.0001339,0.030459,0.012674,0.01294,-0.0025673,0,0,0.045549,-0.00069068,0,-0.01335,0,0,0,0.030823,0.012311,0.01294,-8.0538,0.018691,0.018206,3.0869e-07,0.01,0.69,0
0.00091099,-0.00026583,0.030548,0.012318,0.01286,-0.0025275,0,0,0.045989,-0.0014082,0,-0.013143,0,0,0,0.030893,0.011974,0.01286,-7.7523,0.018575,0.018493,3.223e-07,0.02,0.69,0
0.0013734,-0.00039478,0.030676,0.011963,0.012792,-0.002469,0,0,0.046499,-0.0021546,0,-0.012839,0,0,0,0.030997,0.011642,0.012792,-7.3944,0.018477,0.018807,3.3737e-07,0.03,0.69,0
0.001841,-0.00052028,0.030801,0.011596,0.012719,-0.0023967,0,0,0.047013,-0.0029205,0,-0.012463,0,0,0,0.031096,0.0113,0.012719,-7.0106,0.018372,0.019127,3.5272e-07,0.04,0.69,0
0.0023137,-0.00064185,0.03092,0.011219,0.012642,-0.0023111,0,0,0.047523,-0.0036983,0,-0.012018,0,0,0,0.031188,0.010951,0.012642,-6.6056,0.018261,0.019448,3.6816e-07,0.05,0.69,0
0.0027914,-0.00075908,0.031032,0.010837,0.012561,-0.0022123,0,0,0.048025,-0.0044815,0,-0.011504,0,0,0,0.031272,0.010597,0.012561,-6.1825,0.018143,0.019767,3.8353e-07,0.06,0.69,0
0.0032742,-0.00087155,0.031134,0.01045,0.012475,-0.0021004,0,0,0.048512,-0.005265,0,-0.010922,0,0,0,0.031346,0.010238,0.012475,-5.744,0.01802,0.020083,3.9867e-07,0.07,0.69,0
0.0037617,-0.00097888,0.031224,0.01006,0.012385,-0.0019758,0,0,0.048981,-0.0060448,0,-0.010274,0,0,0,0.031408,0.0098768,0.012385,-5.2919,0.01789,0.020393,4.1345e-07,0.08,0.69,0
0.0042538,-0.0010807,0.031302,0.009669,0.012291,-0.001839,0,0,0.049427,-0.0068176,0,-0.0095629,0,0,0,0.031458,0.009513,0.012291,-4.8284,0.017754,0.020696,4.2776e-07,0.09,0.69,0
0.0047502,-0.0011769,0.031364,0.0092763,0.012192,-0.0016906,0,0,0.049848,-0.0075814,0,-0.0087913,0,0,0,0.031494,0.0091468,0.012192,-4.3554,0.017611,0.020991,4.4151e-07,0.1,0.69,0
0.0052507,-0.0012671,0.031411,0.0088825,0.012088,-0.0015318,0,0,0.05024,-0.0083348,0,-0.0079653,0,0,0,0.031516,0.008778,0.012088,-3.8757,0.017461,0.021277,4.5461e-07,0.11,0.69,0
0.005755,-0.0013512,0.031441,0.0084874,0.011979,-0.001364,0,0,0.050603,-0.0090769,0,-0.0070929,0,0,0,0.031523,0.0084058,0.011979,-3.3927,0.017302,0.021554,4.67e-07,0.12,0.69,0
0.0062628,-0.0014293,0.031452,0.0080909,0.011863,-0.0011894,0,0,0.050932,-0.0098073,0,-0.0061849,0,0,0,0.031513,0.0080296,0.011863,-2.911,0.017135,0.021822,4.7862e-07,0.13,0.69,0
0.0067737,-0.0015015,0.031443,0.0076926,0.011741,-0.0010107,0,0,0.051226,-0.010525,0,-0.0052556,0,0,0,0.031487,0.0076488,0.011741,-2.4363,0.016959,0.022079,4.8937e-07,0.14,0.69,0
0.0072873,-0.0015683,0.031412,0.0072928,0.011612,-0.00083132,0,0,0.051482,-0.011229,0,-0.0043229,0,0,0,0.031442,0.0072634,0.011612,-1.9757,0.016772,0.022325,4.9914e-07,0.15,0.69,0
0.0078033,-0.0016303,0.031357,0.0068926,0.011475,-0.00065526,0,0,0.051694,-0.011914,0,-0.0034074,0,0,0,0.031376,0.0068743,0.011475,-1.5372,0.016575,0.022556,5.0773e-07,0.16,0.69,0
0.0083212,-0.0016883,0.031275,0.0064947,0.011331,-0.00048663,0,0,0.051854,-0.012574,0,-0.0025305,0,0,0,0.031285,0.0064844,0.011331,-1.1288,0.016367,0.022768,5.1483e-07,0.17,0.69,0
0.0088404,-0.0017435,0.031162,0.0061037,0.01118,-0.00032874,0,0,0.051954,-0.013198,0,-0.0017095,0,0,0,0.031167,0.0060985,0.01118,-0.75599,0.016148,0.022954,5.2008e-07,0.18,0.69,0
0.0093603,-0.0017975,0.031017,0.005725,0.011022,-0.00018327,0,0,0.051985,-0.013773,0,-0.00095302,0,0,0,0.031019,0.0057227,0.011022,-0.4202,0.015921,0.023107,5.2313e-07,0.19,0.69,0
0.0098801,-0.0018518,0.030839,0.0053619,0.01086,-5.0727e-05,0,0,0.051944,-0.014295,0,-0.00026378,0,0,0,0.03084,0.0053607,0.01086,-0.11999,0.015687,0.023223,5.2386e-07,0.2,0.69,0
0.010399,-0.0019086,0.030629,0.0050122,0.010692,6.6678e-05,0,0,0.051835,-0.014768,0,0.00034672,0,0,0,0.03063,0.0050108,0.010692,0.14212,0.015445,0.023304,5.2237e-07,0.21,0.69,0
0.010917,-0.0019702,0.03039,0.0046753,0.010519,0.00016364,0,0,0.051662,-0.015195,0,0.00085092,0,0,0,0.030392,0.0046729,0.010519,0.35629,0.015195,0.023352,5.188e-07,0.22,0.69,0
0.011432,-0.0020397,0.03013,0.0043613,0.010347,0.00023682,0,0,0.051434,-0.015564,0,0.0012315,0,0,0,0.030133,0.0043576,0.010347,0.51662,0.014946,0.023364,5.1339e-07,0.23,0.69,0
0.011945,-0.0021202,0.02987,0.0040741,0.010183,0.00029064,0,0,0.051185,-0.015883,0,0.0015113,0,0,0,0.029874,0.0040694,0.010183,0.63421,0.014709,0.023356,5.0721e-07,0.24,0.69,0
0.012456,-0.0022152,0.029635,0.0037786,0.010024,0.00032968,0,0,0.050988,-0.016238,0,0.0017143,0,0,0,0.02964,0.0037733,0.010024,0.71938,0.014479,0.023377,5.0258e-07,0.25,0.69,0
0.012965,-0.0023284,0.029433,0.0034212,0.0098564,0.00034962,0,0,0.0509,-0.016731,0,0.001818,0,0,0,0.029439,0.0034158,0.0098564,0.76108,0.014237,0.023475,5.0139e-07,0.26,0.69,0
0.013474,-0.0024644,0.029279,0.0030154,0.0096882,0.00032548,0,0,0.050935,-0.017349,0,0.0016925,0,0,0,0.029283,0.0030108,0.0096882,0.70649,0.013994,0.023652,5.0403e-07,0.27,0.69,0
0.013984,-0.0026313,0.029481,0.0023614,0.0095528,0.00036261,0,0,0.050574,-0.01816,0,0.0017809,0,0,0,0.029487,0.002355,0.0095528,0.74394,0.013798,0.024347,5.4768e-07,0.28,0.69,0
0.014489,-0.0028256,0.029997,0.0012655,0.0093788,0.00054317,0,0,0.047911,-0.018574,0,0.0024172,0,0,0,0.030013,0.0012502,0.0093788,1.0301,0.013547,0.025686,6.3726e-07,0.29,0.69,0
0.014954,-0.0030059,0.029575,-7.1154e-05,0.0088513,0.00058919,0,0,0.041668,-0.017471,0,0.0023579,0,0,0,0.029599,-9.4375e-05,0.0088513,1.0753,0.012785,0.026393,6.5689e-07,0.3,0.69,0
0.015334,-0.0031364,0.028824,-0.0012948,0.0082588,0.00051358,0,0,0.034169,-0.015407,0,0.0016213,0,0,0,0.028846,-0.0013165,0.0082588,0.92283,0.011929,0.026709,6.162e-07,0.31,0.69,0
0.015637,-0.0032392,0.029457,-0.0018419,0.0082847,0.00061415,0,0,0.029418,-0.013913,0,0.0016099,0,0,0,0.029477,-0.0018616,0.0082847,1.111,0.011967,0.027703,6.3532e-07,0.32,0.69,0
0.015919,-0.0033465,0.03044,-0.0016594,0.0086343,0.00078183,0,0,0.028348,-0.013382,0,0.0020328,0,0,0,0.030465,-0.0016841,0.0086343,1.4135,0.012472,0.028431,6.8e-07,0.33,0.69,0
0.016204,-0.0034621,0.030981,-0.0013292,0.0088955,0.00092345,0,0,0.028711,-0.013292,0,0.002401,0,0,0,0.031013,-0.0013616,0.0088955,1.65,0.012849,0.028658,7.087e-07,0.34,0.69,0
0.016493,-0.0035811,0.031527,-0.0010857,0.0091324,0.0010832,0,0,0.029113,-0.013284,0,0.0028164,0,0,0,0.031568,-0.001127,0.0091324,1.9089,0.013191,0.028962,7.4119e-07,0.35,0.69,0
0.016786,-0.0037015,0.03207,-0.00092641,0.0093431,0.0012245,0,0,0.029545,-0.01335,0,0.0031837,0,0,0,0.03212,-0.00097666,0.0093431,2.1274,0.013496,0.029332,7.765e-07,0.36,0.69,0
0.017084,-0.0038224,0.032592,-0.00086344,0.0095185,0.0013205,0,0,0.029995,-0.013497,0,0.0034334,0,0,0,0.032648,-0.00091975,0.0095185,2.2593,0.013749,0.029755,8.1353e-07,0.37,0.69,0
0.017386,-0.0039437,0.033093,-0.00085683,0.0096708,0.0013542,0,0,0.030448,-0.013686,0,0.0035209,0,0,0,0.03315,-0.00091437,0.0096708,2.2814,0.013969,0.030197,8.5106e-07,0.38,0.69,0
0.017693,-0.004066,0.033561,-0.00086555,0.0098086,0.0013233,0,0,0.030878,-0.013876,0,0.0034405,0,0,0,0.033615,-0.00091935,0.0098086,2.1978,0.014168,0.030614,8.8707e-07,0.39,0.69,0
0.018004,-0.0041898,0.033986,-0.00085809,0.0099384,0.0012365,0,0,0.031262,-0.014035,0,0.0032148,0,0,0,0.034032,-0.00090441,0.0099384,2.0289,0.014355,0.030973,9.1978e-07,0.4,0.69,0
0.018318,-0.0043155,0.034362,-0.00081005,0.010066,0.0011085,0,0,0.031585,-0.014138,0,0.0028821,0,0,0,0.034399,-0.00084697,0.010066,1.802,0.014539,0.031253,9.4795e-07,0.41,0.69,0
0.018636,-0.0044436,0.034687,-0.00070539,0.010194,0.00095831,0,0,0.03184,-0.01417,0,0.0024916,0,0,0,0.034714,-0.00073288,0.010194,1.5482,0.014725,0.031442,9.7081e-07,0.42,0.69,0
0.018955,-0.0045738,0.034962,-0.00053961,0.010327,0.00080734,0,0,0.032026,-0.014126,0,0.0020991,0,0,0,0.034982,-0.00055909,0.010327,1.3003,0.014917,0.03154,9.8825e-07,0.43,0.69,0
0.019276,-0.0047056,0.035195,-0.00032184,0.010462,0.00067579,0,0,0.032153,-0.014019,0,0.0017571,0,0,0,0.035208,-0.00033546,0.010462,1.0881,0.015112,0.031562,1.0009e-06,0.44,0.69,0
0.019598,-0.0048383,0.035394,-7.2737e-05,0.010596,0.00057823,0,0,0.032237,-0.01387,0,0.0015034,0,0,0,0.035403,-8.2682e-05,0.010596,0.93251,0.015306,0.031533,1.0099e-06,0.45,0.69,0
0.019921,-0.0049709,0.03557,0.00018206,0.010726,0.00052072,0,0,0.032298,-0.013707,0,0.0013539,0,0,0,0.035578,0.00017401,0.010726,0.84182,0.015493,0.031484,1.017e-06,0.46,0.69,0
0.020244,-0.0051024,0.035734,0.00041997,0.010846,0.00050113,0,0,0.032354,-0.013554,0,0.0013029,0,0,0,0.035742,0.00041252,0.010846,0.81201,0.015667,0.031439,1.0236e-06,0.47,0.69,0
0.020568,-0.005232,0.035894,0.00062652,0.010956,0.00051243,0,0,0.032419,-0.013429,0,0.0013323,0,0,0,0.035902,0.00061872,0.010956,0.8315,0.015826,0.031417,1.0308e-06,0.48,0.69,0
0.020893,-0.0053589,0.036054,0.00079517,0.011055,0.00054642,0,0,0.032499,-0.013338,0,0.0014207,0,0,0,0.036063,0.00078633,0.011055,0.88686,0.015968,0.031427,1.0394e-06,0.49,0.69,0
0.021218,-0.0054826,0.036216,0.0009238,0.011142,0.0005957,0,0,0.032597,-0.013284,0,0.0015488,0,0,0,0.036227,0.00091335,0.011142,0.96586,0.016094,0.031471,1.0495e-06,0.5,0.69,0
0.021545,-0.0056027,0.036378,0.0010128,0.011217,0.00065389,0,0,0.032709,-0.013266,0,0.0017001,0,0,0,0.036391,0.0010003,0.011217,1.0579,0.016203,0.031548,1.061e-06,0.51,0.69,0
0.021872,-0.0057189,0.036537,0.0010678,0.011281,0.00071704,0,0,0.032832,-0.013278,0,0.0018643,0,0,0,0.036552,0.0010529,0.011281,1.1566,0.016295,0.03165,1.0735e-06,0.52,0.69,0
0.022201,-0.0058311,0.036691,0.0010992,0.011337,0.00078721,0,0,0.03296,-0.013309,0,0.0020468,0,0,0,0.036708,0.0010814,0.011337,1.2655,0.016376,0.031766,1.0865e-06,0.53,0.69,0
0.022531,-0.0059389,0.03684,0.001106,0.011384,0.00087133,0,0,0.033093,-0.013361,0,0.0022655,0,0,0,0.036861,0.0010844,0.011384,1.395,0.016443,0.0319,1.1002e-06,0.54,0.69,0
0.022863,-0.0060419,0.036982,0.0010662,0.011414,0.00096987,0,0,0.033237,-0.013453,0,0.0025217,0,0,0,0.037008,0.0010397,0.011414,1.5447,0.016487,0.032066,1.1151e-06,0.55,0.69,0
0.023196,-0.00614,0.037098,0.00095983,0.011417,0.0010726,0,0,0.033385,-0.013595,0,0.0027887,0,0,0,0.03713,0.0009277,0.011417,1.6975,0.016492,0.032263,1.1303e-06,0.56,0.69,0
0.023531,-0.0062332,0.037167,0.00080998,0.011393,0.0011756,0,0,0.033506,-0.013758,0,0.0030565,0,0,0,0.037206,0.00077166,0.011393,1.8495,0.016457,0.032454,1.1427e-06,0.57,0.69,0
0.023866,-0.0063217,0.03718,0.00062965,0.011343,0.0012834,0,0,0.033588,-0.013927,0,0.0033368,0,0,0,0.037225,0.00058412,0.011343,2.0095,0.016384,0.032621,1.1514e-06,0.58,0.69,0
0.024202,-0.0064068,0.036572,0.00044587,0.011105,0.001424,0,0,0.035505,-0.014696,0,0.0041593,0,0,0,0.036636,0.00038162,0.011105,2.3091,0.016041,0.032266,1.1264e-06,0.59,0.69,0
0.024572,-0.0064764,0.036175,0.00041811,0.010978,0.0013417,0,0,0.042194,-0.017312,0,0.0046195,0,0,0,0.036248,0.00034511,0.010978,2.2818,0.015857,0.031958,1.1476e-06,0.6,0.69,0
0.025045,-0.0064863,0.037148,0.00059957,0.011324,0.00083611,0,0,0.052292,-0.021453,0,0.0032374,0,0,0,0.037189,0.00055817,0.011324,1.4276,0.016357,0.032617,1.2624e-06,0.61,0.69,0
0.025632,-0.0064156,0.03752,0.0010886,0.011582,0.00039824,0,0,0.060511,-0.024344,0,0.0018094,0,0,0,0.037529,0.0010787,0.011582,0.65353,0.01673,0.032499,1.244e-06,0.62,0.69,0
0.026271,-0.0063144,0.036686,0.0017485,0.01153,0.00021641,0,0,0.063907,-0.024789,0,0.0011216,0,0,0,0.036689,0.0017454,0.01153,0.35433,0.016655,0.031224,1.0872e-06,0.63,0.69,0
0.026915,-0.0062343,0.036165,0.0020345,0.01146,-1.684e-05,0,0,0.064233,-0.024506,0,-8.757e-05,0,0,0,0.036167,0.0020323,0.01146,-0.032777,0.016553,0.030533,1.0066e-06,0.64,0.69,0
0.027556,-0.0061806,0.036008,0.0019864,0.011398,-0.00026539,0,0,0.063985,-0.024471,0,-0.00138,0,0,0,0.036011,0.0019833,0.011398,-0.44889,0.016464,0.030433,9.9458e-07,0.65,0.69,0
0.028194,-0.0061448,0.035873,0.0018703,0.011323,-0.00043579,0,0,0.063831,-0.024577,0,-0.0022661,0,0,0,0.03588,0.0018641,0.011323,-0.73492,0.016356,0.03041,9.8741e-07,0.66,0.69,0
0.028832,-0.0061229,0.035766,0.0016886,0.011236,-0.00055752,0,0,0.063776,-0.024824,0,-0.0028991,0,0,0,0.035775,0.0016792,0.011236,-0.93735,0.01623,0.030463,9.8484e-07,0.67,0.69,0
0.02947,-0.006112,0.03569,0.0014769,0.01115,-0.00063385,0,0,0.063803,-0.02515,0,-0.003296,0,0,0,0.035701,0.001465,0.01115,-1.0612,0.016105,0.030567,9.8584e-07,0.68,0.69,0
0.030108,-0.0061096,0.035633,0.0012558,0.011067,-0.00067231,0,0,0.063872,-0.025508,0,-0.003496,0,0,0,0.035646,0.0012426,0.011067,-1.1202,0.015985,0.030694,9.8854e-07,0.69,0.69,0
0.030747,-0.0061135,0.035585,0.0010362,0.010986,-0.00068234,0,0,0.063957,-0.025871,0,-0.0035482,0,0,0,0.035599,0.0010227,0.010986,-1.1313,0.015869,0.030827,9.9176e-07,0.7,0.69,0
0.031387,-0.006122,0.035542,0.00082398,0.01091,-0.00067197,0,0,0.064044,-0.026223,0,-0.0034943,0,0,0,0.035555,0.00081094,0.01091,-1.1088,0.015759,0.030956,9.9489e-07,0.71,0.69,0
0.032028,-0.0061339,0.0355,0.00062241,0.010837,-0.00064737,0,0,0.064125,-0.026557,0,-0.0033663,0,0,0,0.035512,0.00061035,0.010837,-1.0634,0.015653,0.031077,9.9765e-07,0.72,0.69,0
0.03267,-0.0061482,0.035458,0.00043325,0.010767,-0.0006131,0,0,0.064196,-0.026869,0,-0.0031881,0,0,0,0.035469,0.00042246,0.010767,-1.0029,0.015553,0.031189,9.9991e-07,0.73,0.69,0
0.033312,-0.0061641,0.035416,0.00025729,0.010702,-0.0005726,0,0,0.064256,-0.027156,0,-0.0029775,0,0,0,0.035425,0.0002479,0.010702,-0.93315,0.015458,0.031289,1.0016e-06,0.74,0.69,0
0.033955,-0.0061809,0.035373,9.4731e-05,0.01064,-0.00052842,0,0,0.064304,-0.027418,0,-0.0027478,0,0,0,0.035381,8.6755e-05,0.01064,-0.85828,0.015369,0.031378,1.0028e-06,0.75,0.69,0
0.034598,-0.0061982,0.035328,-5.4603e-05,0.010582,-0.0004825,0,0,0.06434,-0.027656,0,-0.002509,0,0,0,0.035335,-6.1245e-05,0.010582,-0.78139,0.015285,0.031455,1.0034e-06,0.76,0.69,0
0.035242,-0.0062155,0.035284,-0.00019115,0.010528,-0.00043628,0,0,0.064365,-0.027869,0,-0.0022687,0,0,0,0.035289,-0.00019658,0.010528,-0.70475,0.015207,0.031523,1.0036e-06,0.77,0.69,0
0.035886,-0.0062327,0.035238,-0.0003155,0.010477,-0.00039086,0,0,0.064379,-0.02806,0,-0.0020325,0,0,0,0.035242,-0.00031986,0.010477,-0.62999,0.015133,0.03158,1.0033e-06,0.78,0.69,0
0.036529,-0.0062493,0.035192,-0.00042834,0.010429,-0.00034703,0,0,0.064384,-0.02823,0,-0.0018045,0,0,0,0.035196,-0.00043178,0.010429,-0.5583,0.015064,0.031628,1.0026e-06,0.79,0.69,0
0.037173,-0.0062654,0.035147,-0.00053041,0.010385,-0.00030537,0,0,0.06438,-0.02838,0,-0.0015879,0,0,0,0.035149,-0.00053308,0.010385,-0.49052,0.015,0.031668,1.0016e-06,0.8,0.69,0
0.037817,-0.0062807,0.035101,-0.00062245,0.010344,-0.00026629,0,0,0.064369,-0.028512,0,-0.0013847,0,0,0,0.035103,-0.00062448,0.010344,-0.42719,0.014941,0.0317,1.0003e-06,0.81,0.69,0
0.038461,-0.0062952,0.035056,-0.00070521,0.010305,-0.00023005,0,0,0.064352,-0.028627,0,-0.0011963,0,0,0,0.035058,-0.00070673,0.010305,-0.36866,0.014885,0.031726,9.9885e-07,0.82,0.69,0
0.039104,-0.0063089,0.035012,-0.00077941,0.01027,-0.00019681,0,0,0.06433,-0.028728,0,-0.0010234,0,0,0,0.035013,-0.00078053,0.01027,-0.31511,0.014834,0.031746,9.972e-07,0.83,0.69,0
0.039747,-0.0063216,0.03497,-0.00084575,0.010237,-0.00016661,0,0,0.064304,-0.028816,0,-0.00086639,0,0,0,0.03497,-0.00084656,0.010237,-0.26659,0.014787,0.03176,9.9542e-07,0.84,0.69,0
0.04039,-0.0063334,0.034928,-0.00090489,0.010207,-0.00013948,0,0,0.064275,-0.028891,0,-0.00072528,0,0,0,0.034929,-0.00090546,0.010207,-0.22306,0.014743,0.031771,9.9357e-07,0.85,0.69,0
0.041033,-0.0063443,0.034889,-0.00095744,0.010179,-0.00011534,0,0,0.064244,-0.028956,0,-0.00059976,0,0,0,0.034889,-0.00095783,0.010179,-0.18438,0.014704,0.031777,9.9168e-07,0.86,0.69,0
0.041675,-0.0063543,0.034851,-0.001004,0.010154,-9.4101e-05,0,0,0.064212,-0.029011,0,-0.00048933,0,0,0,0.034851,-0.0010042,0.010154,-0.15039,0.014667,0.031781,9.8978e-07,0.87,0.69,0
0.042317,-0.0063634,0.034816,-0.001045,0.010131,-7.5632e-05,0,0,0.064179,-0.029058,0,-0.00039329,0,0,0,0.034816,-0.0010452,0.010131,-0.12085,0.014634,0.031782,9.8791e-07,0.88,0.69,0
0.042959,-0.0063716,0.034782,-0.0010811,0.01011,-5.9776e-05,0,0,0.064147,-0.029098,0,-0.00031084,0,0,0,0.034782,-0.0010812,0.01011,-0.095502,0.014604,0.031782,9.861e-07,0.89,0.69,0
0.0436,-0.0063789,0.034751,-0.0011125,0.010092,-4.6356e-05,0,0,0.064115,-0.029131,0,-0.00024105,0,0,0,0.034752,-0.0011126,0.010092,-0.074056,0.014577,0.03178,9.8436e-07,0.9,0.69,0
0.044241,-0.0063855,0.034723,-0.0011399,0.010075,-3.518e-05,0,0,0.064085,-0.029159,0,-0.00018294,0,0,0,0.034723,-0.0011399,0.010075,-0.0562,0.014553,0.031776,9.8273e-07,0.91,0.69,0
0.044882,-0.0063912,0.034698,-0.0011634,0.01006,-2.6046e-05,0,0,0.064057,-0.029182,0,-0.00013544,0,0,0,0.034698,-0.0011634,0.01006,-0.041607,0.014532,0.031773,9.8123e-07,0.92,0.69,0
0.045522,-0.0063963,0.034675,-0.0011834,0.010047,-1.8741e-05,0,0,0.064031,-0.0292,0,-9.7455e-05,0,0,0,0.034675,-0.0011834,0.010047,-0.029937,0.014513,0.031768,9.7986e-07,0.93,0.69,0
0.046162,-0.0064005,0.034655,-0.0012002,0.010036,-1.3048e-05,0,0,0.064008,-0.029215,0,-6.7847e-05,0,0,0,0.034655,-0.0012002,0.010036,-0.02084,0.014497,0.031764,9.7865e-07,0.94,0.69,0
0.046802,-0.0064041,0.034638,-0.0012141,0.010027,-8.741e-06,0,0,0.063988,-0.029227,0,-4.5453e-05,0,0,0,0.034638,-0.0012141,0.010027,-0.01396,0.014484,0.03176,9.776e-07,0.95,0.69,0
0.047442,-0.006407,0.034624,-0.0012251,0.01002,-5.5949e-06,0,0,0.063971,-0.029236,0,-2.9094e-05,0,0,0,0.034624,-0.0012251,0.01002,-0.0089344,0.014473,0.031757,9.7673e-07,0.96,0.69,0
0.048082,-0.0064092,0.034613,-0.0012336,0.010014,-3.3797e-06,0,0,0.063958,-0.029243,0,-1.7575e-05,0,0,0,0.034613,-0.0012336,0.010014,-0.0053958,0.014464,0.031754,9.7604e-07,0.97,0.69,0
0.048721,-0.0064108,0.034605,-0.0012395,0.01001,-1.864e-06,0,0,0.063948,-0.029248,0,-9.6927e-06,0,0,0,0.034605,-0.0012395,0.01001,-0.0029752,0.014458,0.031752,9.7555e-07,0.98,0.69,0
0.049361,-0.0064118,0.034601,-0.001243,0.010007,-2.3227e-06,0,0,0.063943,-0.029251,0,-1.2078e-05,0,0,0,0.034601,-0.001243,0.010007,-0.0037106,0.014455,0.03175,9.7525e-07,0.99,0.69,0
0.04968,-0.0064121,0.034599,-0.0012442,0.010006,-3.3934e-06,0,0,0.063941,-0.029252,0,-1.7645e-05,0,0,0,0.034599,-0.0012442,0.010006,-0.0054233,0.014454,0.03175,9.7515e-07,1,0.69,0
0.00022594,-7.0746e-05,0.030398,0.012831,0.012969,-0.002715,0,0,0.045317,-0.00035889,0,-0.014118,0,0,0,0.030809,0.01242,0.012969,-8.588,0.018733,0.018121,3.0465e-07,0,0.7,0
0.00045317,-0.00014097,0.030424,0.01264,0.012919,-0.0027011,0,0,0.045514,-0.00072705,0,-0.014046,0,0,0,0.030826,0.012238,0.012919,-8.4503,0.018661,0.018258,3.1112e-07,0.01,0.7,0
0.00091027,-0.00028023,0.030519,0.012267,0.012836,-0.0026613,0,0,0.045976,-0.0014794,0,-0.013839,0,0,0,0.0309,0.011886,0.012836,-8.1318,0.01854,0.018558,3.2538e-07,0.02,0.7,0
0.0013727,-0.0004168,0.030655,0.011896,0.012765,-0.0026011,0,0,0.046512,-0.0022594,0,-0.013526,0,0,0,0.031009,0.011541,0.012765,-7.7534,0.018439,0.018887,3.4113e-07,0.03,0.7,0
0.0018405,-0.00055011,0.030788,0.011514,0.012691,-0.0025247,0,0,0.047053,-0.0030585,0,-0.013129,0,0,0,0.031114,0.011188,0.012691,-7.3441,0.018331,0.019219,3.5713e-07,0.04,0.7,0
0.0023138,-0.00067962,0.030917,0.011124,0.012612,-0.0024328,0,0,0.047592,-0.0038695,0,-0.012651,0,0,0,0.031212,0.010828,0.012612,-6.9093,0.018218,0.019554,3.7324e-07,0.05,0.7,0
0.0027924,-0.00080483,0.031039,0.010727,0.01253,-0.0023258,0,0,0.048123,-0.0046864,0,-0.012094,0,0,0,0.031303,0.010464,0.01253,-6.4534,0.018099,0.019887,3.8931e-07,0.06,0.7,0
0.0032762,-0.0009253,0.031153,0.010327,0.012444,-0.002204,0,0,0.048643,-0.005504,0,-0.011461,0,0,0,0.031384,0.010095,0.012444,-5.9794,0.017974,0.020218,4.0521e-07,0.07,0.7,0
0.0037652,-0.0010406,0.031256,0.0099241,0.012354,-0.0020679,0,0,0.049146,-0.0063182,0,-0.010753,0,0,0,0.031456,0.0097245,0.012354,-5.4901,0.017845,0.020544,4.2082e-07,0.08,0.7,0
0.0042591,-0.0011504,0.031349,0.00952,0.012261,-0.0019182,0,0,0.04963,-0.0071258,0,-0.0099746,0,0,0,0.031517,0.0093517,0.012261,-4.9878,0.01771,0.020864,4.3606e-07,0.09,0.7,0
0.0047578,-0.0012543,0.031429,0.0091156,0.012163,-0.0017556,0,0,0.050091,-0.0079242,0,-0.0091292,0,0,0,0.031567,0.0089773,0.012163,-4.4754,0.017569,0.021178,4.5084e-07,0.1,0.7,0
0.0052609,-0.0013521,0.031496,0.0087115,0.012062,-0.0015814,0,0,0.050527,-0.0087116,0,-0.0082233,0,0,0,0.031606,0.0086012,0.012062,-3.9556,0.017423,0.021485,4.651e-07,0.11,0.7,0
0.0057683,-0.0014439,0.031547,0.0083079,0.011957,-0.0013972,0,0,0.050936,-0.0094866,0,-0.0072652,0,0,0,0.031632,0.0082232,0.011957,-3.4322,0.017271,0.021784,4.7878e-07,0.12,0.7,0
0.0062797,-0.0015294,0.031584,0.0079053,0.011847,-0.001205,0,0,0.051317,-0.010248,0,-0.0062657,0,0,0,0.031646,0.0078431,0.011847,-2.9097,0.017112,0.022076,4.9183e-07,0.13,0.7,0
0.0067947,-0.001609,0.031604,0.0075039,0.011732,-0.0010074,0,0,0.051666,-0.010994,0,-0.0052384,0,0,0,0.031647,0.0074609,0.011732,-2.3935,0.016947,0.022359,5.0419e-07,0.14,0.7,0
0.007313,-0.0016829,0.031606,0.0071047,0.011613,-0.00080761,0,0,0.051981,-0.011722,0,-0.0041996,0,0,0,0.031634,0.0070772,0.011613,-1.8899,0.016775,0.022632,5.1573e-07,0.15,0.7,0
0.0078343,-0.0017518,0.031589,0.0067093,0.01149,-0.00060912,0,0,0.052259,-0.012429,0,-0.0031674,0,0,0,0.031605,0.0066935,0.01149,-1.4057,0.016596,0.022894,5.2631e-07,0.16,0.7,0
0.0083582,-0.0018165,0.031552,0.0063202,0.011362,-0.00041549,0,0,0.052495,-0.013108,0,-0.0021606,0,0,0,0.03156,0.0063125,0.011362,-0.9472,0.016411,0.02314,5.3572e-07,0.17,0.7,0
0.0088842,-0.0018781,0.031493,0.0059411,0.01123,-0.00022999,0,0,0.052684,-0.013752,0,-0.001196,0,0,0,0.031496,0.0059382,0.01123,-0.51978,0.016222,0.023366,5.4372e-07,0.18,0.7,0
0.0094118,-0.0019379,0.031412,0.0055756,0.011096,-5.5485e-05,0,0,0.052821,-0.014354,0,-0.00028852,0,0,0,0.031413,0.0055747,0.011096,-0.12731,0.016028,0.023568,5.5012e-07,0.19,0.7,0
0.0099406,-0.0019976,0.03131,0.0052264,0.010961,0.00010496,0,0,0.052907,-0.01491,0,0.00054578,0,0,0,0.031311,0.0052252,0.010961,0.22605,0.015832,0.023744,5.5482e-07,0.2,0.7,0
0.01047,-0.0020593,0.031188,0.0048952,0.010825,0.000247,0,0,0.052944,-0.015417,0,0.0012844,0,0,0,0.031191,0.0048923,0.010825,0.53341,0.015636,0.023891,5.5782e-07,0.21,0.7,0
0.010999,-0.0021254,0.03105,0.0045855,0.010691,0.00036475,0,0,0.052935,-0.015874,0,0.0018967,0,0,0,0.031056,0.0045798,0.010691,0.78444,0.015442,0.024011,5.5921e-07,0.22,0.7,0
0.011529,-0.0021988,0.030905,0.0043014,0.010562,0.00045147,0,0,0.052893,-0.016278,0,0.0023477,0,0,0,0.030913,0.0042933,0.010562,0.96678,0.015256,0.024105,5.593e-07,0.23,0.7,0
0.012057,-0.002283,0.030771,0.0040414,0.010444,0.00049809,0,0,0.052851,-0.016646,0,0.0025901,0,0,0,0.030781,0.0040318,0.010444,1.0625,0.015085,0.024189,5.5912e-07,0.24,0.7,0
0.012586,-0.0023821,0.030685,0.0037901,0.010342,0.00049014,0,0,0.05289,-0.017036,0,0.0025487,0,0,0,0.030694,0.0037809,0.010342,1.0414,0.014939,0.024306,5.612e-07,0.25,0.7,0
0.013115,-0.0025008,0.030709,0.0035125,0.010267,0.0004177,0,0,0.053151,-0.01756,0,0.002172,0,0,0,0.030716,0.0035055,0.010267,0.8833,0.014829,0.024539,5.7047e-07,0.26,0.7,0
0.013649,-0.0026438,0.030872,0.0031655,0.010211,0.00026736,0,0,0.053717,-0.018319,0,0.0013903,0,0,0,0.030876,0.0031608,0.010211,0.56775,0.014749,0.024949,5.9036e-07,0.27,0.7,0
0.014189,-0.0028182,0.031573,0.0023294,0.010171,0.00028377,0,0,0.052245,-0.01879,0,0.0011678,0,0,0,0.031582,0.0023202,0.010171,0.52483,0.014691,0.026242,6.8188e-07,0.28,0.7,0
0.0147,-0.0030112,0.032049,0.00095972,0.0099026,0.00041553,0,0,0.045764,-0.017826,0,0.0014503,0,0,0,0.032066,0.00094302,0.0099026,0.67621,0.014304,0.027764,7.9027e-07,0.29,0.7,0
0.015118,-0.0031734,0.031292,-0.00027417,0.0093055,0.00032198,0,0,0.037182,-0.015789,0,0.00097005,0,0,0,0.031306,-0.00028795,0.0093055,0.48214,0.013441,0.028063,7.7421e-07,0.3,0.7,0
0.015448,-0.0032844,0.03089,-0.0012395,0.0088952,0.00030219,0,0,0.03167,-0.01446,0,0.00075298,0,0,0,0.030898,-0.0012471,0.0088952,0.48192,0.012849,0.028464,7.3638e-07,0.31,0.7,0
0.015748,-0.0033788,0.031385,-0.0017828,0.0088806,0.00041347,0,0,0.029804,-0.014107,0,0.0010698,0,0,0,0.031391,-0.0017892,0.0088806,0.70773,0.012828,0.029339,7.5418e-07,0.32,0.7,0
0.016043,-0.0034834,0.031693,-0.0017205,0.0089918,0.00044,0,0,0.029512,-0.013926,0,0.001144,0,0,0,0.0317,-0.0017272,0.0089918,0.76094,0.012988,0.029563,7.6456e-07,0.33,0.7,0
0.016338,-0.0035973,0.031867,-0.0014453,0.0091265,0.00051007,0,0,0.029563,-0.013743,0,0.0013262,0,0,0,0.031876,-0.0014548,0.0091265,0.88401,0.013183,0.0295,7.7048e-07,0.34,0.7,0
0.016634,-0.0037157,0.032148,-0.0012123,0.0092807,0.00064187,0,0,0.029728,-0.013641,0,0.0016689,0,0,0,0.032163,-0.0012269,0.0092807,1.108,0.013406,0.029571,7.8549e-07,0.35,0.7,0
0.016933,-0.0038363,0.032493,-0.0010385,0.0094365,0.0007687,0,0,0.029974,-0.013617,0,0.0019986,0,0,0,0.032513,-0.0010586,0.0094365,1.317,0.01363,0.029747,8.0694e-07,0.36,0.7,0
0.017234,-0.0039581,0.032869,-0.00092608,0.0095828,0.00086511,0,0,0.030272,-0.013661,0,0.0022493,0,0,0,0.032893,-0.00095069,0.0095828,1.4683,0.013842,0.029998,8.3247e-07,0.37,0.7,0
0.017538,-0.0040808,0.033251,-0.00086016,0.0097173,0.00091516,0,0,0.030594,-0.013751,0,0.0023794,0,0,0,0.033278,-0.00088699,0.0097173,1.5372,0.014036,0.030289,8.6007e-07,0.38,0.7,0
0.017846,-0.0042045,0.033625,-0.00081363,0.0098435,0.00091389,0,0,0.030916,-0.013854,0,0.0023761,0,0,0,0.033651,-0.00083989,0.0098435,1.5195,0.014218,0.030583,8.8779e-07,0.39,0.7,0
0.018156,-0.0043295,0.033976,-0.000761,0.0099646,0.00086591,0,0,0.031215,-0.013943,0,0.0022514,0,0,0,0.034,-0.00078431,0.0099646,1.4268,0.014393,0.030848,9.1387e-07,0.4,0.7,0
0.01847,-0.0044561,0.034295,-0.00068268,0.010084,0.00078251,0,0,0.031475,-0.013996,0,0.0020345,0,0,0,0.034314,-0.00070161,0.010084,1.2802,0.014565,0.03106,9.3695e-07,0.41,0.7,0
0.018786,-0.0045843,0.034576,-0.00056651,0.010203,0.00067893,0,0,0.031685,-0.014,0,0.0017652,0,0,0,0.03459,-0.00058075,0.010203,1.1053,0.014738,0.031209,9.5622e-07,0.42,0.7,0
0.019104,-0.004714,0.03482,-0.00040928,0.010323,0.00057184,0,0,0.031846,-0.013952,0,0.0014868,0,0,0,0.03483,-0.00041941,0.010323,0.92857,0.014911,0.031293,9.7147e-07,0.43,0.7,0
0.019423,-0.0048449,0.03503,-0.00021713,0.010444,0.00047665,0,0,0.031962,-0.013859,0,0.0012393,0,0,0,0.035037,-0.00022418,0.010444,0.77354,0.015085,0.031321,9.8306e-07,0.44,0.7,0
0.019743,-0.0049763,0.035212,-3.6523e-06,0.010563,0.00040474,0,0,0.032045,-0.013736,0,0.0010523,0,0,0,0.035217,-8.739e-06,0.010563,0.65743,0.015257,0.031309,9.9184e-07,0.45,0.7,0
0.020064,-0.0051074,0.035376,0.00021401,0.010677,0.00036184,0,0,0.032109,-0.013602,0,0.00094077,0,0,0,0.03538,0.00020995,0.010677,0.58874,0.015422,0.031279,9.9894e-07,0.46,0.7,0
0.020385,-0.0052376,0.035528,0.00041975,0.010784,0.00034817,0,0,0.032167,-0.013474,0,0.00090524,0,0,0,0.035532,0.00041599,0.010784,0.56746,0.015578,0.03125,1.0055e-06,0.47,0.7,0
0.020707,-0.005366,0.035676,0.00060156,0.010883,0.00036009,0,0,0.032231,-0.013366,0,0.00093623,0,0,0,0.03568,0.00059756,0.010883,0.58753,0.01572,0.031237,1.0124e-06,0.48,0.7,0
0.02103,-0.005492,0.035824,0.00075236,0.010973,0.00039221,0,0,0.032306,-0.013287,0,0.0010198,0,0,0,0.035828,0.00074764,0.010973,0.64002,0.01585,0.031249,1.0203e-06,0.49,0.7,0
0.021353,-0.0056152,0.035972,0.00086903,0.011052,0.00043911,0,0,0.032396,-0.013238,0,0.0011417,0,0,0,0.035978,0.00086319,0.011052,0.71589,0.015964,0.03129,1.0294e-06,0.5,0.7,0
0.021678,-0.0057351,0.036121,0.0009517,0.011122,0.00049651,0,0,0.032499,-0.013221,0,0.0012909,0,0,0,0.036129,0.00094433,0.011122,0.80789,0.016065,0.03136,1.0399e-06,0.51,0.7,0
0.022003,-0.0058514,0.036271,0.001003,0.011182,0.00056242,0,0,0.032615,-0.013233,0,0.0014623,0,0,0,0.03628,0.00099362,0.011182,0.91257,0.016152,0.031455,1.0515e-06,0.52,0.7,0
0.02233,-0.0059639,0.03642,0.001025,0.011234,0.00063778,0,0,0.032743,-0.013271,0,0.0016582,0,0,0,0.036432,0.0010131,0.011234,1.0311,0.016226,0.031575,1.0642e-06,0.53,0.7,0
0.022658,-0.0060723,0.036571,0.0010148,0.011276,0.00072461,0,0,0.032884,-0.013339,0,0.001884,0,0,0,0.036586,0.00099962,0.011276,1.1661,0.016287,0.031723,1.0784e-06,0.54,0.7,0
0.022988,-0.0061763,0.036724,0.00096387,0.011306,0.00082283,0,0,0.033043,-0.013445,0,0.0021394,0,0,0,0.036743,0.0009445,0.011306,1.3164,0.016331,0.031906,1.0943e-06,0.55,0.7,0
0.023319,-0.0062758,0.036882,0.00087022,0.011326,0.00093026,0,0,0.033223,-0.013592,0,0.0024187,0,0,0,0.036907,0.0008457,0.011326,1.4777,0.016359,0.03213,1.1126e-06,0.56,0.7,0
0.023652,-0.0063708,0.037074,0.00074417,0.011345,0.0010474,0,0,0.033447,-0.013782,0,0.0027232,0,0,0,0.037105,0.00071326,0.011345,1.6492,0.016388,0.032411,1.1354e-06,0.57,0.7,0
0.023988,-0.0064616,0.037356,0.00057301,0.011379,0.0011399,0,0,0.033771,-0.014047,0,0.0029637,0,0,0,0.037392,0.00053665,0.011379,1.7732,0.016436,0.032807,1.1688e-06,0.58,0.7,0
0.024327,-0.0065511,0.037437,0.00051665,0.011386,0.0012353,0,0,0.034545,-0.014396,0,0.0033633,0,0,0,0.037483,0.00047084,0.011386,1.9393,0.016446,0.03294,1.1934e-06,0.59,0.7,0
0.024677,-0.0066367,0.03719,0.00071912,0.011373,0.0013589,0,0,0.037338,-0.015332,0,0.0041541,0,0,0,0.037251,0.00065818,0.011373,2.216,0.016427,0.032585,1.2114e-06,0.6,0.7,0
0.02507,-0.006684,0.037802,0.00081802,0.011586,0.001133,0,0,0.044591,-0.01805,0,0.003939,0,0,0,0.037857,0.00076299,0.011586,1.8984,0.016735,0.033046,1.3259e-06,0.61,0.7,0
0.025573,-0.0066504,0.038644,0.0011349,0.011934,0.00068986,0,0,0.055406,-0.021846,0,0.0030243,0,0,0,0.038674,0.0011048,0.011934,1.1561,0.017238,0.033509,1.3856e-06,0.62,0.7,0
0.026194,-0.0065611,0.037958,0.0019826,0.011982,0.00052571,0,0,0.063483,-0.024107,0,0.0027496,0,0,0,0.037974,0.0019664,0.011982,0.86299,0.017307,0.032199,1.2139e-06,0.63,0.7,0
0.026851,-0.0064799,0.036968,0.0024138,0.011815,0.00031208,0,0,0.065399,-0.024442,0,0.0016228,0,0,0,0.036976,0.0024053,0.011815,0.51008,0.017065,0.030958,1.0636e-06,0.64,0.7,0
0.027502,-0.0064257,0.036565,0.0022788,0.011653,-4.0626e-05,0,0,0.064771,-0.024373,0,-0.00021125,0,0,0,0.036568,0.0022761,0.011653,-0.070013,0.016832,0.030697,1.0318e-06,0.65,0.7,0
0.028147,-0.0063909,0.036287,0.0020597,0.011504,-0.00029002,0,0,0.064436,-0.024555,0,-0.0015081,0,0,0,0.036291,0.0020561,0.011504,-0.48573,0.016617,0.030624,1.0156e-06,0.66,0.7,0
0.02879,-0.0063717,0.036121,0.0018017,0.011377,-0.00045869,0,0,0.064335,-0.024896,0,-0.0023852,0,0,0,0.036128,0.0017951,0.011377,-0.76571,0.016433,0.030685,1.0108e-06,0.67,0.7,0
0.029433,-0.0063643,0.036009,0.0015381,0.011264,-0.00055797,0,0,0.064337,-0.025288,0,-0.0029015,0,0,0,0.036018,0.0015289,0.011264,-0.92736,0.016271,0.030798,1.0106e-06,0.68,0.7,0
0.030077,-0.0063656,0.03592,0.0012811,0.01116,-0.00060769,0,0,0.064375,-0.025686,0,-0.00316,0,0,0,0.03593,0.0012703,0.01116,-1.0052,0.01612,0.030925,1.0118e-06,0.69,0.7,0
0.030721,-0.0063732,0.035841,0.0010363,0.011063,-0.0006235,0,0,0.064422,-0.02607,0,-0.0032422,0,0,0,0.035852,0.001025,0.011063,-1.0264,0.01598,0.03105,1.0132e-06,0.7,0.7,0
0.031365,-0.0063853,0.035768,0.00080652,0.010972,-0.00061614,0,0,0.064469,-0.026431,0,-0.0032039,0,0,0,0.035779,0.00079558,0.010972,-1.0098,0.015849,0.031167,1.0144e-06,0.71,0.7,0
0.03201,-0.0064006,0.035699,0.00059293,0.010888,-0.00059303,0,0,0.064509,-0.026766,0,-0.0030838,0,0,0,0.035709,0.00058282,0.010888,-0.96797,0.015726,0.031274,1.0153e-06,0.72,0.7,0
0.032656,-0.006418,0.035632,0.0003958,0.010808,-0.00055942,0,0,0.064542,-0.027073,0,-0.002909,0,0,0,0.035641,0.00038683,0.010808,-0.90977,0.015612,0.03137,1.0157e-06,0.73,0.7,0
0.033301,-0.0064367,0.035567,0.00021493,0.010735,-0.00051913,0,0,0.064564,-0.027351,0,-0.0026995,0,0,0,0.035575,0.00020721,0.010735,-0.8415,0.015505,0.031454,1.0156e-06,0.74,0.7,0
0.033947,-0.0064561,0.035503,4.9747e-05,0.010666,-0.00047496,0,0,0.064577,-0.027602,0,-0.0024698,0,0,0,0.03551,4.3293e-05,0.010666,-0.76774,0.015406,0.031527,1.0151e-06,0.75,0.7,0
0.034593,-0.0064756,0.03544,-0.00010049,0.010602,-0.00042905,0,0,0.06458,-0.027826,0,-0.002231,0,0,0,0.035446,-0.00010576,0.010602,-0.69183,0.015314,0.031589,1.0142e-06,0.76,0.7,0
0.035239,-0.006495,0.035378,-0.00023665,0.010543,-0.00038295,0,0,0.064573,-0.028026,0,-0.0019913,0,0,0,0.035383,-0.00024085,0.010543,-0.61622,0.015228,0.031641,1.0129e-06,0.77,0.7,0
0.035884,-0.006514,0.035318,-0.00035966,0.010487,-0.00033783,0,0,0.064559,-0.028202,0,-0.0017567,0,0,0,0.035321,-0.00036294,0.010487,-0.54268,0.015148,0.031684,1.0112e-06,0.78,0.7,0
0.03653,-0.0065323,0.035258,-0.00047046,0.010436,-0.00029454,0,0,0.064537,-0.028357,0,-0.0015316,0,0,0,0.03526,-0.00047297,0.010436,-0.47246,0.015075,0.031719,1.0093e-06,0.79,0.7,0
0.037175,-0.0065498,0.0352,-0.00057001,0.010389,-0.00025367,0,0,0.064508,-0.028493,0,-0.0013191,0,0,0,0.035202,-0.00057188,0.010389,-0.40645,0.015006,0.031745,1.0072e-06,0.8,0.7,0
0.03782,-0.0065664,0.035143,-0.0006592,0.010345,-0.00021565,0,0,0.064474,-0.028611,0,-0.0011214,0,0,0,0.035144,-0.00066056,0.010345,-0.34521,0.014943,0.031766,1.0049e-06,0.81,0.7,0
0.038464,-0.006582,0.035088,-0.00073892,0.010305,-0.00018072,0,0,0.064436,-0.028713,0,-0.00093975,0,0,0,0.035089,-0.00073989,0.010305,-0.28909,0.014885,0.03178,1.0024e-06,0.82,0.7,0
0.039109,-0.0065966,0.035035,-0.00080998,0.010267,-0.00014903,0,0,0.064395,-0.028801,0,-0.00077496,0,0,0,0.035036,-0.00081065,0.010267,-0.23827,0.014831,0.031789,9.9993e-07,0.83,0.7,0
0.039752,-0.0066101,0.034984,-0.00087316,0.010233,-0.00012062,0,0,0.064352,-0.028877,0,-0.00062725,0,0,0,0.034984,-0.00087361,0.010233,-0.19279,0.014781,0.031794,9.9737e-07,0.84,0.7,0
0.040396,-0.0066226,0.034935,-0.00092918,0.010202,-9.5484e-05,0,0,0.064307,-0.028941,0,-0.00049652,0,0,0,0.034936,-0.00092947,0.010202,-0.15257,0.014736,0.031796,9.9481e-07,0.85,0.7,0
0.041038,-0.0066341,0.034889,-0.0009787,0.010173,-7.3535e-05,0,0,0.064262,-0.028995,0,-0.00038238,0,0,0,0.034889,-0.00097888,0.010173,-0.11748,0.014695,0.031795,9.9228e-07,0.86,0.7,0
0.041681,-0.0066446,0.034846,-0.0010223,0.010147,-5.466e-05,0,0,0.064216,-0.02904,0,-0.00028423,0,0,0,0.034846,-0.0010224,0.010147,-0.087319,0.014657,0.031791,9.8981e-07,0.87,0.7,0
0.042323,-0.0066541,0.034805,-0.0010606,0.010123,-3.8708e-05,0,0,0.064172,-0.029078,0,-0.00020128,0,0,0,0.034805,-0.0010607,0.010123,-0.061834,0.014623,0.031785,9.8743e-07,0.88,0.7,0
0.042964,-0.0066626,0.034767,-0.0010941,0.010102,-2.5505e-05,0,0,0.064129,-0.029109,0,-0.00013263,0,0,0,0.034767,-0.0010941,0.010102,-0.040742,0.014592,0.031778,9.8516e-07,0.89,0.7,0
0.043605,-0.0066703,0.034732,-0.0011232,0.010083,-1.486e-05,0,0,0.064088,-0.029135,0,-7.727e-05,0,0,0,0.034732,-0.0011232,0.010083,-0.023733,0.014564,0.031771,9.8302e-07,0.9,0.7,0
0.044246,-0.0066771,0.0347,-0.0011483,0.010066,-6.5636e-06,0,0,0.06405,-0.029156,0,-3.413e-05,0,0,0,0.0347,-0.0011483,0.010066,-0.010475,0.014539,0.031763,9.8104e-07,0.91,0.7,0
0.044886,-0.006683,0.034672,-0.0011699,0.010051,-3.9965e-07,0,0,0.064015,-0.029173,0,-2.0781e-06,0,0,0,0.034672,-0.0011699,0.010051,-0.00062256,0.014517,0.031755,9.7922e-07,0.92,0.7,0
0.045526,-0.0066882,0.034646,-0.0011882,0.010037,3.8571e-06,0,0,0.063983,-0.029186,0,2.0057e-05,0,0,0,0.034646,-0.0011882,0.010037,0.0061836,0.014498,0.031747,9.7759e-07,0.93,0.7,0
0.046166,-0.0066926,0.034624,-0.0012035,0.010026,6.4374e-06,0,0,0.063954,-0.029197,0,3.3475e-05,0,0,0,0.034624,-0.0012035,0.010026,0.01031,0.014482,0.031739,9.7615e-07,0.94,0.7,0
0.046805,-0.0066963,0.034605,-0.001216,0.010017,7.5758e-06,0,0,0.06393,-0.029205,0,3.9394e-05,0,0,0,0.034605,-0.001216,0.010017,0.012132,0.014469,0.031733,9.7491e-07,0.95,0.7,0
0.047445,-0.0066993,0.03459,-0.001226,0.010009,7.5096e-06,0,0,0.06391,-0.029211,0,3.905e-05,0,0,0,0.03459,-0.001226,0.010009,0.012025,0.014458,0.031727,9.7389e-07,0.96,0.7,0
0.048084,-0.0067016,0.034578,-0.0012336,0.010003,6.4781e-06,0,0,0.063894,-0.029216,0,3.3686e-05,0,0,0,0.034578,-0.0012336,0.010003,0.010374,0.014449,0.031722,9.7309e-07,0.97,0.7,0
0.048722,-0.0067032,0.034569,-0.0012389,0.009999,4.7218e-06,0,0,0.063882,-0.029219,0,2.4553e-05,0,0,0,0.034569,-0.0012389,0.009999,0.0075617,0.014443,0.031719,9.7252e-07,0.98,0.7,0
0.049361,-0.0067041,0.034564,-0.0012421,0.0099965,9.3947e-07,0,0,0.063875,-0.02922,0,4.8852e-06,0,0,0,0.034564,-0.0012421,0.0099965,0.0015065,0.014439,0.031717,9.7217e-07,0.99,0.7,0
0.049681,-0.0067045,0.034562,-0.0012432,0.0099957,-1.8136e-06,0,0,0.063873,-0.029221,0,-9.4307e-06,0,0,0,0.034562,-0.0012432,0.0099957,-0.0029005,0.014438,0.031716,9.7205e-07,1,0.7,0
0.00022579,-7.4436e-05,0.030377,0.012809,0.012956,-0.0028567,0,0,0.045294,-0.00038076,0,-0.014855,0,0,0,0.03083,0.012356,0.012956,-9.0079,0.018714,0.018182,3.0756e-07,0,0.71,0
0.00045294,-0.00014844,0.030405,0.012607,0.012904,-0.0028429,0,0,0.045502,-0.00077,0,-0.014783,0,0,0,0.030848,0.012164,0.012904,-8.8611,0.018639,0.018327,3.1439e-07,0.01,0.71,0
0.00091005,-0.00029542,0.030505,0.012215,0.012816,-0.0028032,0,0,0.045992,-0.0015633,0,-0.014577,0,0,0,0.030926,0.011794,0.012816,-8.5242,0.018512,0.018643,3.2944e-07,0.02,0.71,0
0.0013728,-0.00043997,0.03065,0.011827,0.012743,-0.0027419,0,0,0.046558,-0.0023823,0,-0.014258,0,0,0,0.031042,0.011435,0.012743,-8.1248,0.018407,0.018988,3.4601e-07,0.03,0.71,0
0.0018412,-0.00058145,0.030793,0.011428,0.012666,-0.0026622,0,0,0.04713,-0.0032195,0,-0.013844,0,0,0,0.031154,0.011068,0.012666,-7.6906,0.018296,0.019337,3.6282e-07,0.04,0.71,0
0.0023154,-0.00071924,0.030933,0.011022,0.012586,-0.0025651,0,0,0.047701,-0.0040683,0,-0.013338,0,0,0,0.031259,0.010695,0.012586,-7.2279,0.01818,0.019687,3.7975e-07,0.05,0.71,0
0.0027952,-0.00085281,0.031067,0.010609,0.012503,-0.002451,0,0,0.048266,-0.004923,0,-0.012745,0,0,0,0.031358,0.010319,0.012503,-6.7417,0.01806,0.020037,3.9666e-07,0.06,0.71,0
0.0032807,-0.00098163,0.031194,0.010194,0.012416,-0.0023208,0,0,0.048822,-0.0057787,0,-0.012068,0,0,0,0.031448,0.0099392,0.012416,-6.2357,0.017935,0.020385,4.1347e-07,0.07,0.71,0
0.0037717,-0.0011052,0.031313,0.0097763,0.012327,-0.0021748,0,0,0.049364,-0.0066311,0,-0.011309,0,0,0,0.031531,0.0095577,0.012327,-5.7133,0.017805,0.020729,4.3007e-07,0.08,0.71,0
0.004268,-0.0012233,0.031422,0.0093584,0.012234,-0.0020141,0,0,0.049888,-0.0074768,0,-0.010473,0,0,0,0.031605,0.0091749,0.012234,-5.1774,0.017671,0.021069,4.4639e-07,0.09,0.71,0
0.0047694,-0.0013354,0.031521,0.0089413,0.012139,-0.0018395,0,0,0.050394,-0.008313,0,-0.0095652,0,0,0,0.031671,0.0087913,0.012139,-4.6312,0.017534,0.021404,4.6236e-07,0.1,0.71,0
0.0052758,-0.0014413,0.031608,0.0085259,0.01204,-0.0016524,0,0,0.050877,-0.0091374,0,-0.0085923,0,0,0,0.031727,0.008407,0.01204,-4.078,0.017391,0.021733,4.7793e-07,0.11,0.71,0
0.005787,-0.0015409,0.031684,0.0081129,0.011939,-0.0014545,0,0,0.051337,-0.009948,0,-0.0075632,0,0,0,0.031775,0.0080223,0.011939,-3.5218,0.017245,0.022057,4.9307e-07,0.12,0.71,0
0.0063026,-0.0016342,0.031747,0.0077032,0.011835,-0.0012478,0,0,0.051771,-0.010743,0,-0.0064888,0,0,0,0.031813,0.0076374,0.011835,-2.967,0.017095,0.022374,5.0772e-07,0.13,0.71,0
0.0068224,-0.0017214,0.031797,0.0072976,0.011728,-0.0010351,0,0,0.052179,-0.01152,0,-0.0053827,0,0,0,0.031842,0.0072528,0.011728,-2.4191,0.016941,0.022685,5.2183e-07,0.14,0.71,0
0.0073462,-0.0018028,0.031834,0.0068976,0.011619,-0.00081931,0,0,0.052557,-0.012277,0,-0.0042604,0,0,0,0.031862,0.0068697,0.011619,-1.8837,0.016784,0.022989,5.3533e-07,0.15,0.71,0
0.0078735,-0.0018789,0.031856,0.0065051,0.011508,-0.00060372,0,0,0.052904,-0.013008,0,-0.0031394,0,0,0,0.031871,0.0064898,0.011508,-1.3672,0.016623,0.023282,5.4808e-07,0.16,0.71,0
0.0084042,-0.0019504,0.031864,0.0061227,0.011396,-0.00039193,0,0,0.053216,-0.01371,0,-0.0020381,0,0,0,0.031871,0.0061158,0.011396,-0.87568,0.016461,0.023563,5.5996e-07,0.17,0.71,0
0.0089379,-0.0020186,0.031857,0.0057535,0.011283,-0.00018759,0,0,0.053492,-0.014377,0,-0.00097545,0,0,0,0.031859,0.0057514,0.011283,-0.41508,0.016298,0.023829,5.7081e-07,0.18,0.71,0
0.0094741,-0.0020845,0.031836,0.005401,0.011171,5.4617e-06,0,0,0.053729,-0.015002,0,2.8402e-05,0,0,0,0.031837,0.0054004,0.011171,0.0086901,0.016136,0.024076,5.805e-07,0.19,0.71,0
0.010012,-0.00215,0.031803,0.0050687,0.011061,0.00018277,0,0,0.053928,-0.015581,0,0.00095041,0,0,0,0.031805,0.0050668,0.011061,0.38878,0.015978,0.024302,5.8893e-07,0.2,0.71,0
0.010553,-0.0022169,0.031759,0.0047601,0.010956,0.00033882,0,0,0.054089,-0.016109,0,0.0017619,0,0,0,0.031764,0.0047554,0.010956,0.71627,0.015825,0.024504,5.9607e-07,0.21,0.71,0
0.011094,-0.0022877,0.031709,0.0044799,0.010857,0.00046652,0,0,0.054217,-0.01658,0,0.0024259,0,0,0,0.031717,0.0044716,0.010857,0.97905,0.015682,0.024681,6.019e-07,0.22,0.71,0
0.011637,-0.0023652,0.031657,0.0042325,0.010767,0.00055607,0,0,0.054315,-0.01699,0,0.0028916,0,0,0,0.031669,0.0042211,0.010767,1.1594,0.015552,0.024831,6.065e-07,0.23,0.71,0
0.012181,-0.0024532,0.031611,0.00402,0.010689,0.0005914,0,0,0.054396,-0.01734,0,0.0030753,0,0,0,0.031623,0.0040073,0.010689,1.2264,0.01544,0.024955,6.1012e-07,0.24,0.71,0
0.012725,-0.0025559,0.031586,0.0038398,0.010628,0.00054257,0,0,0.054492,-0.017649,0,0.0028213,0,0,0,0.031597,0.003829,0.010628,1.1202,0.015351,0.02507,6.1369e-07,0.25,0.71,0
0.01327,-0.0026796,0.031643,0.0036787,0.010597,0.00036792,0,0,0.054721,-0.017987,0,0.0019132,0,0,0,0.031649,0.0036723,0.010597,0.75716,0.015306,0.025238,6.2139e-07,0.26,0.71,0
0.013819,-0.0028308,0.031809,0.0033967,0.010562,9.3523e-05,0,0,0.055243,-0.018629,0,0.00048632,0,0,0,0.031812,0.0033937,0.010562,0.1984,0.015256,0.025599,6.3963e-07,0.27,0.71,0
0.014375,-0.0030085,0.032143,0.0023467,0.010347,-1.2394e-05,0,0,0.052679,-0.018716,0,-0.00036053,0,0,0,0.032152,0.0023377,0.010347,-0.073262,0.014945,0.026745,6.9762e-07,0.28,0.71,0
0.014876,-0.003185,0.032226,0.00063999,0.0098597,7.9569e-05,0,0,0.043585,-0.016857,0,-0.0002229,0,0,0,0.032241,0.00062457,0.0098597,0.033353,0.014242,0.028192,7.6308e-07,0.29,0.71,0
0.015252,-0.0033229,0.031995,-0.00060515,0.009417,0.00019907,0,0,0.034035,-0.014604,0,0.00029796,0,0,0,0.032006,-0.00061579,0.009417,0.26808,0.013602,0.028956,7.8029e-07,0.3,0.71,0
0.015556,-0.003425,0.03217,-0.0013265,0.009253,0.00037743,0,0,0.030412,-0.014002,0,0.00093675,0,0,0,0.032177,-0.0013333,0.009253,0.61982,0.013365,0.02967,7.9642e-07,0.31,0.71,0
0.015858,-0.0035209,0.03246,-0.0017501,0.009213,0.0004242,0,0,0.030221,-0.014252,0,0.0011029,0,0,0,0.032466,-0.001756,0.009213,0.71052,0.013308,0.030267,8.1949e-07,0.32,0.71,0
0.01616,-0.003625,0.032517,-0.0017409,0.0092329,0.00033292,0,0,0.03027,-0.014266,0,0.00086558,0,0,0,0.032521,-0.0017443,0.0092329,0.55726,0.013336,0.030306,8.2346e-07,0.33,0.71,0
0.016463,-0.0037369,0.032589,-0.0015327,0.0093169,0.00031907,0,0,0.030254,-0.014104,0,0.00082959,0,0,0,0.032592,-0.001536,0.0093169,0.53779,0.013458,0.030202,8.2409e-07,0.34,0.71,0
0.016766,-0.0038539,0.032722,-0.0013184,0.009421,0.00037694,0,0,0.030291,-0.013961,0,0.00098005,0,0,0,0.032727,-0.0013233,0.009421,0.6373,0.013608,0.03015,8.291e-07,0.35,0.71,0
0.017069,-0.0039738,0.032926,-0.0011338,0.0095375,0.00045857,0,0,0.030404,-0.013873,0,0.0011923,0,0,0,0.032933,-0.0011411,0.0095375,0.77406,0.013776,0.030186,8.4013e-07,0.36,0.71,0
0.017374,-0.0040956,0.033176,-0.00099006,0.0096558,0.0005307,0,0,0.030576,-0.01384,0,0.0013798,0,0,0,0.033186,-0.00099955,0.0096558,0.89188,0.013947,0.030297,8.5579e-07,0.37,0.71,0
0.01768,-0.0042187,0.033452,-0.00088044,0.0097715,0.00057538,0,0,0.030785,-0.013848,0,0.001496,0,0,0,0.033463,-0.00089138,0.0097715,0.96129,0.014114,0.030457,8.744e-07,0.38,0.71,0
0.017989,-0.0043431,0.033736,-0.00078952,0.0098839,0.00058481,0,0,0.031007,-0.013875,0,0.0015205,0,0,0,0.033747,-0.00080067,0.0098839,0.97085,0.014277,0.030636,8.9421e-07,0.39,0.71,0
0.018301,-0.0044686,0.034012,-0.00069957,0.0099939,0.00055968,0,0,0.031224,-0.013901,0,0.0014552,0,0,0,0.034023,-0.00070971,0.0099939,0.92362,0.014436,0.030808,9.1366e-07,0.4,0.71,0
0.018614,-0.0045955,0.034272,-0.00059578,0.010103,0.00050693,0,0,0.03142,-0.013908,0,0.001318,0,0,0,0.03428,-0.0006041,0.010103,0.83248,0.014593,0.030952,9.3148e-07,0.41,0.71,0
0.018929,-0.0047236,0.034507,-0.0004688,0.010211,0.00043738,0,0,0.031584,-0.013884,0,0.0011372,0,0,0,0.034513,-0.00047506,0.010211,0.71576,0.01475,0.031056,9.4686e-07,0.42,0.71,0
0.019246,-0.0048528,0.034716,-0.00031588,0.01032,0.0003633,0,0,0.031715,-0.013827,0,0.00094458,0,0,0,0.03472,-0.00032026,0.01032,0.59339,0.014907,0.031116,9.5949e-07,0.43,0.71,0
0.019563,-0.0049828,0.0349,-0.00014077,0.010428,0.00029624,0,0,0.031814,-0.013739,0,0.00077023,0,0,0,0.034903,-0.00014374,0.010428,0.48361,0.015062,0.031137,9.695e-07,0.44,0.71,0
0.019882,-0.005113,0.035064,4.7581e-05,0.010533,0.00024509,0,0,0.031889,-0.013632,0,0.00063724,0,0,0,0.035066,4.5515e-05,0.010533,0.40034,0.015215,0.031131,9.7746e-07,0.45,0.71,0
0.020201,-0.005243,0.035212,0.00023752,0.010635,0.00021499,0,0,0.031951,-0.013517,0,0.00055898,0,0,0,0.035214,0.00023591,0.010635,0.3516,0.015362,0.031111,9.8412e-07,0.46,0.71,0
0.020521,-0.0053719,0.035352,0.00041743,0.010731,0.00020729,0,0,0.032007,-0.013407,0,0.00053896,0,0,0,0.035353,0.00041595,0.010731,0.33945,0.0155,0.031091,9.9031e-07,0.47,0.71,0
0.020841,-0.0054993,0.035487,0.00057783,0.01082,0.00022038,0,0,0.032068,-0.013314,0,0.000573,0,0,0,0.035489,0.00057618,0.01082,0.36121,0.015628,0.031084,9.9674e-07,0.48,0.71,0
0.021162,-0.0056246,0.035622,0.00071225,0.0109,0.00025103,0,0,0.032138,-0.013244,0,0.00065268,0,0,0,0.035624,0.00071017,0.0109,0.41148,0.015745,0.031097,1.004e-06,0.49,0.71,0
0.021484,-0.0057473,0.035758,0.00081717,0.010973,0.00029563,0,0,0.032221,-0.013202,0,0.00076863,0,0,0,0.035761,0.00081437,0.010973,0.48417,0.015849,0.031136,1.0123e-06,0.5,0.71,0
0.021807,-0.0058671,0.035896,0.00089143,0.011036,0.00035121,0,0,0.032318,-0.013188,0,0.00091316,0,0,0,0.0359,0.00088758,0.011036,0.57416,0.015941,0.031202,1.0219e-06,0.51,0.71,0
0.02213,-0.0059836,0.036038,0.00093508,0.011092,0.00041614,0,0,0.03243,-0.013204,0,0.001082,0,0,0,0.036043,0.0009298,0.011092,0.67841,0.016022,0.031295,1.0329e-06,0.52,0.71,0
0.022455,-0.0060965,0.036184,0.00094769,0.011139,0.00048998,0,0,0.032557,-0.013249,0,0.001274,0,0,0,0.036191,0.0009405,0.011139,0.79575,0.01609,0.031418,1.0454e-06,0.53,0.71,0
0.022781,-0.0062056,0.036336,0.00092692,0.011179,0.00057251,0,0,0.032704,-0.013328,0,0.0014885,0,0,0,0.036346,0.00091724,0.011179,0.92517,0.016147,0.031574,1.0598e-06,0.54,0.71,0
0.023109,-0.0063108,0.036501,0.00086982,0.011211,0.00066213,0,0,0.032876,-0.013444,0,0.0017215,0,0,0,0.036513,0.00085703,0.011211,1.0632,0.016194,0.031771,1.0767e-06,0.55,0.71,0
0.023439,-0.0064118,0.036688,0.00077615,0.011239,0.00075452,0,0,0.033083,-0.013602,0,0.0019617,0,0,0,0.036704,0.0007597,0.011239,1.2019,0.016234,0.032018,1.0972e-06,0.56,0.71,0
0.023771,-0.0065089,0.036918,0.00064867,0.01127,0.00083549,0,0,0.033343,-0.013808,0,0.0021723,0,0,0,0.036938,0.00062863,0.01127,1.3175,0.016279,0.03233,1.1231e-06,0.57,0.71,0
0.024106,-0.0066026,0.037181,0.00048596,0.0113,0.00087384,0,0,0.033646,-0.014059,0,0.002272,0,0,0,0.037203,0.00046408,0.0113,1.3612,0.016323,0.032697,1.1535e-06,0.58,0.71,0
0.024444,-0.0066943,0.037431,0.00043677,0.01136,0.00087102,0,0,0.033892,-0.014201,0,0.0022647,0,0,0,0.037454,0.00041452,0.01136,1.3439,0.01641,0.032959,1.1793e-06,0.59,0.71,0
0.024784,-0.0067822,0.037365,0.00061537,0.011394,0.0010113,0,0,0.03451,-0.014301,0,0.0027753,0,0,0,0.037397,0.00058262,0.011394,1.59,0.016458,0.032775,1.1797e-06,0.6,0.71,0
0.025131,-0.0068493,0.037333,0.00067595,0.011403,0.0011626,0,0,0.039245,-0.015777,0,0.0038393,0,0,0,0.037385,0.00062404,0.011403,1.9016,0.016471,0.032748,1.2022e-06,0.61,0.71,0
0.025567,-0.0068572,0.037671,0.0010851,0.011627,0.0010932,0,0,0.05093,-0.01952,0,0.0047849,0,0,0,0.037726,0.0010298,0.011627,1.8376,0.016794,0.032747,1.2221e-06,0.62,0.71,0
0.026155,-0.0067988,0.037576,0.0022242,0.01194,0.00097012,0,0,0.062022,-0.022867,0,0.0049918,0,0,0,0.037616,0.0021849,0.01194,1.6267,0.017247,0.03172,1.1443e-06,0.63,0.71,0
0.026812,-0.0067232,0.037122,0.0028409,0.011989,0.00067746,0,0,0.065346,-0.023785,0,0.0035228,0,0,0,0.037141,0.002822,0.011989,1.1317,0.017317,0.030777,1.0627e-06,0.64,0.71,0
0.027462,-0.0066681,0.0368,0.0026283,0.011828,0.00022027,0,0,0.064925,-0.02392,0,0.0011454,0,0,0,0.036805,0.002623,0.011828,0.37214,0.017085,0.030635,1.0397e-06,0.65,0.71,0
0.02811,-0.0066359,0.036569,0.0022756,0.011653,-0.00012616,0,0,0.06478,-0.024382,0,-0.00065601,0,0,0,0.036571,0.0022736,0.011653,-0.20941,0.016832,0.030701,1.0319e-06,0.66,0.71,0
0.028758,-0.0066208,0.03642,0.0019318,0.011505,-0.00033503,0,0,0.064777,-0.024891,0,-0.0017421,0,0,0,0.036423,0.001928,0.011505,-0.55616,0.016619,0.030843,1.0315e-06,0.67,0.71,0
0.029406,-0.0066178,0.036294,0.0016104,0.011371,-0.00045224,0,0,0.064798,-0.025378,0,-0.0023516,0,0,0,0.0363,0.0016042,0.011371,-0.74706,0.016425,0.030989,1.0322e-06,0.68,0.71,0
0.030054,-0.0066233,0.036179,0.0013135,0.011248,-0.00051237,0,0,0.064821,-0.025829,0,-0.0026643,0,0,0,0.036186,0.0013057,0.011248,-0.84214,0.016247,0.031124,1.0326e-06,0.69,0.71,0
0.030702,-0.0066349,0.036072,0.001041,0.011134,-0.00053524,0,0,0.064838,-0.026241,0,-0.0027832,0,0,0,0.03608,0.0010327,0.011134,-0.87563,0.016082,0.031246,1.0326e-06,0.7,0.71,0
0.031351,-0.0066506,0.035971,0.00079206,0.011029,-0.00053297,0,0,0.06485,-0.026616,0,-0.0027715,0,0,0,0.03598,0.00078385,0.011029,-0.86827,0.015931,0.031355,1.0321e-06,0.71,0.71,0
0.031999,-0.0066693,0.035877,0.00056538,0.010933,-0.00051362,0,0,0.064855,-0.026955,0,-0.0026708,0,0,0,0.035884,0.00055777,0.010933,-0.83364,0.015792,0.03145,1.0312e-06,0.72,0.71,0
0.032648,-0.0066897,0.035787,0.00035965,0.010844,-0.00048285,0,0,0.064851,-0.027259,0,-0.0025108,0,0,0,0.035793,0.00035294,0.010844,-0.78115,0.015663,0.031532,1.0299e-06,0.73,0.71,0
0.033296,-0.0067111,0.0357,0.00017351,0.010762,-0.00044479,0,0,0.064839,-0.02753,0,-0.0023129,0,0,0,0.035706,0.00016781,0.010762,-0.71758,0.015545,0.031602,1.0282e-06,0.74,0.71,0
0.033945,-0.006733,0.035617,5.5655e-06,0.010687,-0.00040253,0,0,0.064818,-0.027771,0,-0.0020931,0,0,0,0.035621,8.903e-07,0.010687,-0.64787,0.015436,0.03166,1.0261e-06,0.75,0.71,0
0.034593,-0.0067547,0.035536,-0.00014556,0.010617,-0.00035835,0,0,0.064789,-0.027983,0,-0.0018634,0,0,0,0.03554,-0.00014928,0.010617,-0.57563,0.015336,0.031708,1.0236e-06,0.76,0.71,0
0.03524,-0.0067761,0.035458,-0.00028122,0.010553,-0.00031396,0,0,0.064753,-0.028169,0,-0.0016326,0,0,0,0.035461,-0.00028409,0.010553,-0.50353,0.015243,0.031746,1.0209e-06,0.77,0.71,0
0.035888,-0.0067967,0.035383,-0.00040272,0.010494,-0.00027062,0,0,0.064711,-0.028331,0,-0.0014072,0,0,0,0.035385,-0.00040487,0.010494,-0.43346,0.015158,0.031775,1.018e-06,0.78,0.71,0
0.036535,-0.0068165,0.03531,-0.00051129,0.01044,-0.00022922,0,0,0.064663,-0.028472,0,-0.0011919,0,0,0,0.035311,-0.00051285,0.01044,-0.36678,0.015079,0.031796,1.0149e-06,0.79,0.71,0
0.037181,-0.0068353,0.035239,-0.0006081,0.010389,-0.0001904,0,0,0.06461,-0.028594,0,-0.00099006,0,0,0,0.035241,-0.0006092,0.010389,-0.30443,0.015007,0.03181,1.0116e-06,0.8,0.71,0
0.037827,-0.006853,0.035172,-0.00069424,0.010343,-0.00015457,0,0,0.064554,-0.028698,0,-0.00080375,0,0,0,0.035173,-0.00069498,0.010343,-0.24701,0.01494,0.031818,1.0083e-06,0.81,0.71,0
0.038472,-0.0068695,0.035107,-0.0007707,0.010301,-0.000122,0,0,0.064496,-0.028786,0,-0.00063438,0,0,0,0.035108,-0.00077119,0.010301,-0.19489,0.014879,0.031822,1.0049e-06,0.82,0.71,0
0.039117,-0.0068849,0.035045,-0.00083843,0.010262,-9.2819e-05,0,0,0.064436,-0.028861,0,-0.00048266,0,0,0,0.035046,-0.00083873,0.010262,-0.14825,0.014823,0.031821,1.0016e-06,0.83,0.71,0
0.039761,-0.0068991,0.034986,-0.00089827,0.010226,-6.7076e-05,0,0,0.064376,-0.028924,0,-0.0003488,0,0,0,0.034987,-0.00089844,0.010226,-0.10712,0.014771,0.031816,9.9826e-07,0.84,0.71,0
0.040404,-0.0069122,0.034931,-0.000951,0.010194,-4.4735e-05,0,0,0.064316,-0.028977,0,-0.00023262,0,0,0,0.034931,-0.0009511,0.010194,-0.071442,0.014725,0.031809,9.9501e-07,0.85,0.71,0
0.041047,-0.0069242,0.034878,-0.00099733,0.010164,-2.5708e-05,0,0,0.064256,-0.02902,0,-0.00013368,0,0,0,0.034878,-0.00099739,0.010164,-0.041055,0.014682,0.0318,9.9187e-07,0.86,0.71,0
0.041689,-0.0069351,0.034829,-0.0010379,0.010137,-9.865e-06,0,0,0.064199,-0.029056,0,-5.1298e-05,0,0,0,0.034829,-0.001038,0.010137,-0.015747,0.014643,0.031789,9.8885e-07,0.87,0.71,0
0.042331,-0.0069449,0.034783,-0.0010733,0.010113,2.9563e-06,0,0,0.064143,-0.029085,0,1.5373e-05,0,0,0,0.034784,-0.0010734,0.010113,0.004742,0.014608,0.031776,9.8598e-07,0.88,0.71,0
0.042972,-0.0069538,0.034741,-0.0011041,0.010091,1.2942e-05,0,0,0.06409,-0.029108,0,6.7299e-05,0,0,0,0.034741,-0.0011042,0.010091,0.02071,0.014576,0.031764,9.8327e-07,0.89,0.71,0
0.043613,-0.0069616,0.034703,-0.0011308,0.010072,2.0297e-05,0,0,0.064041,-0.029126,0,0.00010554,0,0,0,0.034703,-0.0011308,0.010072,0.032479,0.014548,0.031751,9.8075e-07,0.9,0.71,0
0.044253,-0.0069686,0.034667,-0.0011536,0.010054,2.5237e-05,0,0,0.063994,-0.02914,0,0.00013123,0,0,0,0.034667,-0.0011537,0.010054,0.040394,0.014523,0.031738,9.7843e-07,0.91,0.71,0
0.044893,-0.0069747,0.034636,-0.0011732,0.010039,2.7991e-05,0,0,0.063952,-0.029151,0,0.00014555,0,0,0,0.034636,-0.0011732,0.010039,0.044813,0.0145,0.031725,9.7632e-07,0.92,0.71,0
0.045532,-0.00698,0.034608,-0.0011896,0.010025,2.8791e-05,0,0,0.063914,-0.029159,0,0.00014971,0,0,0,0.034608,-0.0011897,0.010025,0.046106,0.014481,0.031714,9.7443e-07,0.93,0.71,0
0.046171,-0.0069845,0.034584,-0.0012034,0.010014,2.7875e-05,0,0,0.063881,-0.029165,0,0.00014495,0,0,0,0.034584,-0.0012034,0.010014,0.044652,0.014465,0.031703,9.7278e-07,0.94,0.71,0
0.04681,-0.0069882,0.034563,-0.0012146,0.010005,2.5486e-05,0,0,0.063852,-0.02917,0,0.00013253,0,0,0,0.034563,-0.0012146,0.010005,0.040835,0.014451,0.031694,9.7137e-07,0.95,0.71,0
0.047448,-0.0069912,0.034546,-0.0012235,0.0099969,2.1867e-05,0,0,0.063829,-0.029173,0,0.00011371,0,0,0,0.034546,-0.0012235,0.0099969,0.035043,0.01444,0.031686,9.702e-07,0.96,0.71,0
0.048086,-0.0069935,0.034533,-0.0012302,0.0099909,1.7263e-05,0,0,0.06381,-0.029175,0,8.9766e-05,0,0,0,0.034533,-0.0012302,0.0099909,0.027669,0.014431,0.03168,9.6929e-07,0.97,0.71,0
0.048724,-0.0069952,0.034524,-0.001235,0.0099867,1.1919e-05,0,0,0.063797,-0.029176,0,6.1981e-05,0,0,0,0.034524,-0.001235,0.0099867,0.019107,0.014425,0.031676,9.6864e-07,0.98,0.71,0
0.049362,-0.0069962,0.034518,-0.0012378,0.0099841,4.522e-06,0,0,0.063789,-0.029177,0,2.3514e-05,0,0,0,0.034518,-0.0012378,0.0099841,0.0072504,0.014422,0.031673,9.6825e-07,0.99,0.71,0
0.049681,-0.0069965,0.034516,-0.0012387,0.0099833,-4.967e-08,0,0,0.063786,-0.029177,0,-2.5831e-07,0,0,0,0.034516,-0.0012387,0.0099833,-7.7381e-05,0.01442,0.031672,9.6812e-07,1,0.71,0
0.00022573,-7.8361e-05,0.030368,0.012792,0.012948,-0.0030074,0,0,0.045292,-0.00040544,0,-0.015639,0,0,0,0.030869,0.012291,0.012948,-9.446,0.018703,0.018259,3.1125e-07,0,0.72,0
0.00045292,-0.00015637,0.030398,0.012578,0.012893,-0.0029939,0,0,0.045513,-0.00081843,0,-0.015569,0,0,0,0.030888,0.012088,0.012893,-9.2891,0.018623,0.018412,3.185e-07,0.01,0.72,0
0.00091026,-0.0003115,0.030505,0.012163,0.0128,-0.0029546,0,0,0.046032,-0.0016578,0,-0.015364,0,0,0,0.03097,0.011698,0.0128,-8.9321,0.018489,0.018746,3.3445e-07,0.02,0.72,0
0.0013736,-0.00046445,0.03066,0.011755,0.012725,-0.0028926,0,0,0.046633,-0.0025205,0,-0.015041,0,0,0,0.031094,0.011322,0.012725,-8.5111,0.01838,0.019111,3.5198e-07,0.03,0.72,0
0.0018429,-0.0006145,0.030815,0.011338,0.012646,-0.0028104,0,0,0.047239,-0.0034,0,-0.014614,0,0,0,0.031213,0.01094,0.012646,-8.0528,0.018266,0.019477,3.6972e-07,0.04,0.72,0
0.0023183,-0.00076099,0.030966,0.010914,0.012564,-0.002709,0,0,0.047845,-0.0042905,0,-0.014087,0,0,0,0.031327,0.010553,0.012564,-7.564,0.018148,0.019846,3.8759e-07,0.05,0.72,0
0.0027998,-0.00090329,0.031113,0.010484,0.012479,-0.0025892,0,0,0.048448,-0.0051866,0,-0.013464,0,0,0,0.031434,0.010163,0.012479,-7.0502,0.018025,0.020214,4.0548e-07,0.06,0.72,0
0.0032873,-0.0010409,0.031254,0.010052,0.012392,-0.0024518,0,0,0.049042,-0.0060834,0,-0.01275,0,0,0,0.031535,0.009771,0.012392,-6.5157,0.017899,0.02058,4.2332e-07,0.07,0.72,0
0.0037807,-0.0011732,0.031389,0.0096188,0.012302,-0.0022977,0,0,0.049624,-0.0069767,0,-0.011948,0,0,0,0.03163,0.0093777,0.012302,-5.9642,0.01777,0.020944,4.4102e-07,0.08,0.72,0
0.0042798,-0.0012999,0.031515,0.0091862,0.01221,-0.0021278,0,0,0.050192,-0.007863,0,-0.011065,0,0,0,0.031718,0.0089839,0.01221,-5.3995,0.017637,0.021305,4.5853e-07,0.09,0.72,0
0.0047845,-0.0014205,0.031633,0.0087555,0.012117,-0.0019433,0,0,0.050744,-0.008739,0,-0.010105,0,0,0,0.031799,0.0085903,0.012117,-4.8251,0.017502,0.021662,4.7579e-07,0.1,0.72,0
0.0052947,-0.0015349,0.031743,0.0083281,0.012021,-0.0017457,0,0,0.051276,-0.009602,0,-0.0090774,0,0,0,0.031873,0.0081973,0.012021,-4.2446,0.017364,0.022015,4.9277e-07,0.11,0.72,0
0.00581,-0.0016428,0.031842,0.0079051,0.011924,-0.0015367,0,0,0.051787,-0.01045,0,-0.007991,0,0,0,0.031942,0.0078055,0.011924,-3.6624,0.017224,0.022364,5.0944e-07,0.12,0.72,0
0.0063304,-0.0017443,0.031932,0.0074878,0.011826,-0.0013187,0,0,0.052276,-0.011279,0,-0.0068574,0,0,0,0.032004,0.0074155,0.011826,-3.0831,0.017082,0.022708,5.2576e-07,0.13,0.72,0
0.0068555,-0.0018394,0.032012,0.0070775,0.011727,-0.0010943,0,0,0.052742,-0.012088,0,-0.0056903,0,0,0,0.032061,0.0070283,0.011727,-2.5119,0.016939,0.023046,5.417e-07,0.14,0.72,0
0.0073852,-0.0019284,0.032082,0.006676,0.011627,-0.00086642,0,0,0.053182,-0.012874,0,-0.0045054,0,0,0,0.032113,0.0066453,0.011627,-1.9545,0.016795,0.023378,5.5718e-07,0.15,0.72,0
0.0079192,-0.002012,0.032142,0.0062856,0.011528,-0.00063854,0,0,0.053595,-0.013631,0,-0.0033204,0,0,0,0.032159,0.0062687,0.011528,-1.4171,0.016652,0.023703,5.7213e-07,0.16,0.72,0
0.0084571,-0.0020907,0.032192,0.0059091,0.01143,-0.00041438,0,0,0.05398,-0.014355,0,-0.0021548,0,0,0,0.0322,0.0059015,0.01143,-0.90599,0.01651,0.024016,5.8644e-07,0.17,0.72,0
0.0089988,-0.0021656,0.032233,0.0055498,0.011335,-0.00019806,0,0,0.054335,-0.015041,0,-0.0010299,0,0,0,0.032235,0.0055474,0.011335,-0.42779,0.016373,0.024317,6.0001e-07,0.18,0.72,0
0.0095438,-0.0022379,0.032266,0.0052114,0.011243,5.82e-06,0,0,0.05466,-0.015683,0,3.0265e-05,0,0,0,0.032267,0.0052107,0.011243,0.010262,0.01624,0.024602,6.1271e-07,0.19,0.72,0
0.010092,-0.0023093,0.032294,0.0048985,0.011158,0.00019189,0,0,0.054954,-0.016274,0,0.00099785,0,0,0,0.032296,0.0048965,0.011158,0.3998,0.016117,0.024867,6.2446e-07,0.2,0.72,0
0.010643,-0.0023815,0.032318,0.0046159,0.01108,0.00035375,0,0,0.055218,-0.016807,0,0.0018395,0,0,0,0.032323,0.0046109,0.01108,0.73064,0.016005,0.02511,6.3519e-07,0.21,0.72,0
0.011196,-0.002457,0.032342,0.0043696,0.011013,0.00048346,0,0,0.055454,-0.017274,0,0.002514,0,0,0,0.03235,0.004361,0.011013,0.98974,0.015908,0.025327,6.4481e-07,0.22,0.72,0
0.011752,-0.0025386,0.032368,0.0041665,0.01096,0.00057054,0,0,0.05566,-0.017664,0,0.0029668,0,0,0,0.03238,0.0041548,0.01096,1.1591,0.015832,0.025512,6.5318e-07,0.23,0.72,0
0.01231,-0.0026298,0.032396,0.0040139,0.010923,0.00059925,0,0,0.055831,-0.017964,0,0.0031161,0,0,0,0.032409,0.0040012,0.010923,1.2102,0.015778,0.025657,6.5989e-07,0.24,0.72,0
0.012869,-0.0027351,0.032412,0.0039182,0.010899,0.00054101,0,0,0.055934,-0.01815,0,0.0028132,0,0,0,0.032423,0.0039076,0.010899,1.0885,0.015743,0.025742,6.6371e-07,0.25,0.72,0
0.013428,-0.0028606,0.032401,0.0038869,0.010886,0.00033232,0,0,0.055938,-0.018199,0,0.0017281,0,0,0,0.032407,0.0038812,0.010886,0.66725,0.015725,0.025748,6.6351e-07,0.26,0.72,0
0.013987,-0.0030164,0.032626,0.0036756,0.010891,0.00011612,0,0,0.055247,-0.018278,0,0.00047222,0,0,0,0.03263,0.0036716,0.010891,0.20251,0.015731,0.02611,6.9903e-07,0.27,0.72,0
0.014537,-0.0031933,0.032572,0.0025437,0.010535,-6.7181e-05,0,0,0.050955,-0.017834,0,-0.00062957,0,0,0,0.032586,0.0025304,0.010535,-0.22748,0.015217,0.02698,7.4499e-07,0.28,0.72,0
0.015012,-0.0033492,0.032022,0.00060278,0.0097875,-0.00018924,0,0,0.041463,-0.016041,0,-0.0012389,0,0,0,0.032042,0.00058347,0.0097875,-0.48317,0.014138,0.028048,7.5028e-07,0.29,0.72,0
0.015366,-0.0034652,0.032104,-0.00084416,0.009378,3.487e-05,0,0,0.032808,-0.014296,0,-0.00026401,0,0,0,0.032115,-0.00085448,0.009378,-0.010109,0.013546,0.029243,7.771e-07,0.3,0.72,0
0.015666,-0.0035639,0.03257,-0.0014418,0.0093385,0.00031651,0,0,0.030201,-0.014014,0,0.00082294,0,0,0,0.032575,-0.0014462,0.0093385,0.53445,0.013489,0.030114,8.2108e-07,0.31,0.72,0
0.01597,-0.0036638,0.032808,-0.0016852,0.0093368,0.00034146,0,0,0.030512,-0.014329,0,0.00088779,0,0,0,0.032812,-0.0016893,0.0093368,0.56889,0.013486,0.03052,8.4414e-07,0.32,0.72,0
0.016276,-0.0037687,0.032982,-0.0017082,0.0093822,0.00027374,0,0,0.03068,-0.014417,0,0.00071172,0,0,0,0.032984,-0.0017105,0.0093822,0.45281,0.013552,0.030691,8.5768e-07,0.33,0.72,0
0.016583,-0.0038794,0.033087,-0.0015684,0.0094557,0.00022652,0,0,0.030721,-0.014331,0,0.00058896,0,0,0,0.033089,-0.0015699,0.0094557,0.3752,0.013658,0.03067,8.6239e-07,0.34,0.72,0
0.016891,-0.0039949,0.033182,-0.0013805,0.0095404,0.00022804,0,0,0.030734,-0.014197,0,0.00059291,0,0,0,0.033183,-0.0013822,0.0095404,0.37924,0.013781,0.030603,8.6511e-07,0.35,0.72,0
0.017198,-0.0041137,0.033306,-0.0011983,0.0096324,0.00026008,0,0,0.030776,-0.01408,0,0.0006762,0,0,0,0.033309,-0.0012007,0.0096324,0.4333,0.013913,0.030568,8.7028e-07,0.36,0.72,0
0.017506,-0.0042349,0.033469,-0.0010381,0.0097293,0.0002983,0,0,0.030862,-0.013998,0,0.00077558,0,0,0,0.033472,-0.0010412,0.0097293,0.49661,0.014053,0.030585,8.7892e-07,0.37,0.72,0
0.017815,-0.0043577,0.03366,-0.0009008,0.0098278,0.00032542,0,0,0.030982,-0.013947,0,0.00084609,0,0,0,0.033664,-0.00090452,0.0098278,0.54046,0.014196,0.030646,8.9038e-07,0.38,0.72,0
0.018126,-0.004482,0.033867,-0.00077872,0.0099264,0.00033231,0,0,0.031122,-0.013917,0,0.000864,0,0,0,0.033871,-0.0007826,0.0099264,0.55013,0.014338,0.030731,9.0348e-07,0.39,0.72,0
0.018438,-0.0046075,0.034076,-0.00066094,0.010025,0.00031676,0,0,0.031267,-0.013891,0,0.00082359,0,0,0,0.03408,-0.0006645,0.010025,0.52265,0.01448,0.030823,9.1701e-07,0.4,0.72,0
0.018751,-0.0047342,0.03428,-0.00053735,0.010123,0.00028203,0,0,0.031404,-0.013858,0,0.00073327,0,0,0,0.034283,-0.00054024,0.010123,0.46399,0.014622,0.030903,9.2991e-07,0.41,0.72,0
0.019066,-0.004862,0.03447,-0.00040116,0.010221,0.00023491,0,0,0.031524,-0.013808,0,0.00061076,0,0,0,0.034472,-0.00040326,0.010221,0.38564,0.014763,0.030962,9.4146e-07,0.42,0.72,0
0.019382,-0.0049906,0.034644,-0.00025008,0.010318,0.00018388,0,0,0.031623,-0.013739,0,0.00047808,0,0,0,0.034645,-0.00025147,0.010318,0.30147,0.014904,0.030994,9.5129e-07,0.43,0.72,0
0.019698,-0.0051197,0.034801,-8.6343e-05,0.010414,0.00013725,0,0,0.031702,-0.013651,0,0.00035686,0,0,0,0.034802,-8.7222e-05,0.010414,0.22493,0.015043,0.031002,9.5942e-07,0.44,0.72,0
0.020016,-0.0052489,0.034943,8.4122e-05,0.010508,0.00010181,0,0,0.031766,-0.013551,0,0.00026471,0,0,0,0.034944,8.3553e-05,0.010508,0.16687,0.015179,0.030992,9.6617e-07,0.45,0.72,0
0.020334,-0.0053778,0.035075,0.00025328,0.010599,8.1883e-05,0,0,0.03182,-0.013449,0,0.0002129,0,0,0,0.035076,0.00025286,0.010599,0.13431,0.015309,0.030974,9.7203e-07,0.46,0.72,0
0.020652,-0.0055057,0.0352,0.00041273,0.010684,7.9214e-05,0,0,0.031872,-0.013353,0,0.00020596,0,0,0,0.035201,0.00041234,0.010684,0.13008,0.015432,0.030958,9.776e-07,0.47,0.72,0
0.020971,-0.0056322,0.035323,0.00055508,0.010763,9.3375e-05,0,0,0.031927,-0.013271,0,0.00024278,0,0,0,0.035323,0.00055462,0.010763,0.15351,0.015547,0.030954,9.8343e-07,0.48,0.72,0
0.021291,-0.0057569,0.035445,0.00067478,0.010836,0.00012254,0,0,0.031992,-0.013209,0,0.00031861,0,0,0,0.035445,0.00067411,0.010836,0.20153,0.015652,0.030967,9.8997e-07,0.49,0.72,0
0.021611,-0.0058792,0.035569,0.00076821,0.010901,0.00016434,0,0,0.032068,-0.013173,0,0.00042729,0,0,0,0.03557,0.00076718,0.010901,0.27012,0.015746,0.031004,9.9755e-07,0.5,0.72,0
0.021932,-0.0059989,0.035697,0.00083334,0.010959,0.00021654,0,0,0.032159,-0.013163,0,0.000563,0,0,0,0.035698,0.00083171,0.010959,0.35533,0.01583,0.031067,1.0064e-06,0.51,0.72,0
0.022254,-0.0061155,0.035829,0.00086895,0.01101,0.00027739,0,0,0.032266,-0.013183,0,0.00072121,0,0,0,0.035832,0.00086643,0.01101,0.45396,0.015903,0.031158,1.0167e-06,0.52,0.72,0
0.022577,-0.0062289,0.035969,0.00087379,0.011053,0.00034549,0,0,0.032391,-0.013233,0,0.00089828,0,0,0,0.035973,0.00087004,0.011053,0.56326,0.015965,0.03128,1.0288e-06,0.53,0.72,0
0.022902,-0.0063389,0.036118,0.00084625,0.011089,0.00041911,0,0,0.032537,-0.013316,0,0.0010897,0,0,0,0.036123,0.00084087,0.011089,0.67984,0.016018,0.031437,1.0428e-06,0.54,0.72,0
0.023228,-0.0064452,0.03628,0.00078493,0.01112,0.00049508,0,0,0.032709,-0.013435,0,0.0012872,0,0,0,0.036288,0.00077757,0.01112,0.79795,0.016062,0.031633,1.0594e-06,0.55,0.72,0
0.023556,-0.0065478,0.036458,0.00069006,0.011144,0.00056684,0,0,0.032908,-0.013591,0,0.0014738,0,0,0,0.036467,0.00068056,0.011144,0.90654,0.016097,0.03187,1.0786e-06,0.56,0.72,0
0.023886,-0.0066469,0.036639,0.00056441,0.011161,0.00062275,0,0,0.033121,-0.013776,0,0.0016191,0,0,0,0.03665,0.00055314,0.011161,0.98738,0.016122,0.032134,1.0994e-06,0.57,0.72,0
0.024219,-0.0067427,0.036779,0.00043528,0.011164,0.00065506,0,0,0.033299,-0.013948,0,0.0017032,0,0,0,0.036792,0.0004231,0.011164,1.031,0.016126,0.032364,1.1167e-06,0.58,0.72,0
0.024552,-0.0068351,0.036822,0.00037985,0.011161,0.00069684,0,0,0.03336,-0.014015,0,0.0018118,0,0,0,0.036836,0.00036621,0.011161,1.0949,0.016121,0.032448,1.1228e-06,0.59,0.72,0
0.024886,-0.0069219,0.036774,0.00039304,0.01115,0.00084557,0,0,0.033311,-0.013984,0,0.0021985,0,0,0,0.036795,0.00037206,0.01115,1.3304,0.016106,0.032407,1.1196e-06,0.6,0.72,0
0.025218,-0.0069991,0.036436,0.00051853,0.011086,0.0011914,0,0,0.036684,-0.01484,0,0.00386,0,0,0,0.036488,0.00046619,0.011086,1.9684,0.016014,0.032076,1.093e-06,0.61,0.72,0
0.025617,-0.0070422,0.036455,0.0012988,0.011326,0.0013469,0,0,0.047064,-0.017714,0,0.0056219,0,0,0,0.036532,0.0012224,0.011326,2.3441,0.01636,0.031532,1.0905e-06,0.62,0.72,0
0.026159,-0.0070195,0.037108,0.0026244,0.01192,0.0010788,0,0,0.058399,-0.020927,0,0.0053571,0,0,0,0.03716,0.0025725,0.01192,1.899,0.017218,0.031009,1.1111e-06,0.63,0.72,0
0.026791,-0.0069555,0.037168,0.0032736,0.012132,0.00075114,0,0,0.063684,-0.022494,0,0.0039513,0,0,0,0.037189,0.0032521,0.012132,1.2951,0.017525,0.030484,1.0676e-06,0.64,0.72,0
0.027437,-0.0069041,0.036869,0.003,0.011961,0.00038276,0,0,0.064761,-0.023298,0,0.0019904,0,0,0,0.036877,0.0029919,0.011961,0.65381,0.017276,0.03041,1.032e-06,0.65,0.72,0
0.028086,-0.0068785,0.036793,0.0025091,0.011791,1.4259e-05,0,0,0.065007,-0.024132,0,7.4146e-05,0,0,0,0.036795,0.0025078,0.011791,0.026158,0.017031,0.030717,1.0428e-06,0.66,0.72,0
0.028737,-0.0068695,0.036675,0.0020767,0.011625,-0.0001974,0,0,0.065128,-0.024827,0,-0.0010265,0,0,0,0.036676,0.0020749,0.011625,-0.32616,0.016792,0.030952,1.0483e-06,0.67,0.72,0
0.029389,-0.0068719,0.036535,0.0016939,0.011469,-0.00032149,0,0,0.065173,-0.025415,0,-0.0016717,0,0,0,0.036539,0.0016905,0.011469,-0.52856,0.016566,0.031133,1.05e-06,0.68,0.72,0
0.030041,-0.0068822,0.036397,0.0013545,0.011325,-0.00039007,0,0,0.065186,-0.025924,0,-0.0020283,0,0,0,0.036402,0.0013498,0.011325,-0.63792,0.016359,0.031281,1.0499e-06,0.69,0.72,0
0.030693,-0.006898,0.036265,0.0010523,0.011195,-0.00042088,0,0,0.065182,-0.026372,0,-0.0021886,0,0,0,0.036271,0.001047,0.011195,-0.68509,0.016171,0.031404,1.0487e-06,0.7,0.72,0
0.031344,-0.0069176,0.036142,0.00078259,0.011077,-0.00042537,0,0,0.065168,-0.026766,0,-0.0022119,0,0,0,0.036147,0.00077726,0.011077,-0.68958,0.016001,0.031509,1.0469e-06,0.71,0.72,0
0.031996,-0.0069397,0.036025,0.0005417,0.01097,-0.00041157,0,0,0.065143,-0.027114,0,-0.0021402,0,0,0,0.03603,0.00053673,0.01097,-0.66489,0.015846,0.031596,1.0446e-06,0.72,0.72,0
0.032647,-0.0069632,0.035915,0.00032661,0.010872,-0.00038539,0,0,0.06511,-0.027419,0,-0.002004,0,0,0,0.035919,0.00032226,0.010872,-0.62078,0.015705,0.031668,1.0418e-06,0.73,0.72,0
0.033298,-0.0069873,0.035809,0.00013475,0.010783,-0.00035125,0,0,0.065068,-0.027686,0,-0.0018265,0,0,0,0.035813,0.00013112,0.010783,-0.56442,0.015576,0.031726,1.0386e-06,0.74,0.72,0
0.033949,-0.0070115,0.035708,-3.6194e-05,0.010702,-0.00031247,0,0,0.065017,-0.027918,0,-0.0016249,0,0,0,0.035711,-3.9088e-05,0.010702,-0.50113,0.015458,0.031772,1.0351e-06,0.75,0.72,0
0.034599,-0.0070353,0.035612,-0.0001883,0.010627,-0.00027154,0,0,0.06496,-0.02812,0,-0.001412,0,0,0,0.035614,-0.00019051,0.010627,-0.43482,0.01535,0.031807,1.0313e-06,0.76,0.72,0
0.035248,-0.0070584,0.035519,-0.00032346,0.010559,-0.00023029,0,0,0.064896,-0.028293,0,-0.0011975,0,0,0,0.03552,-0.00032508,0.010559,-0.36833,0.015251,0.031831,1.0273e-06,0.77,0.72,0
0.035896,-0.0070806,0.03543,-0.00044337,0.010496,-0.00019006,0,0,0.064828,-0.028442,0,-0.00098831,0,0,0,0.035431,-0.00044451,0.010496,-0.30372,0.015161,0.031847,1.0231e-06,0.78,0.72,0
0.036544,-0.0071017,0.035345,-0.0005496,0.010438,-0.0001518,0,0,0.064756,-0.028569,0,-0.00078937,0,0,0,0.035345,-0.00055036,0.010438,-0.24243,0.015078,0.031856,1.0189e-06,0.79,0.72,0
0.037192,-0.0071217,0.035263,-0.00064355,0.010386,-0.00011618,0,0,0.064681,-0.028676,0,-0.00060412,0,0,0,0.035264,-0.00064403,0.010386,-0.18547,0.015002,0.031858,1.0146e-06,0.8,0.72,0
0.037838,-0.0071403,0.035185,-0.0007265,0.010338,-8.3623e-05,0,0,0.064604,-0.028767,0,-0.00043484,0,0,0,0.035186,-0.00072679,0.010338,-0.13348,0.014932,0.031856,1.0103e-06,0.81,0.72,0
0.038484,-0.0071577,0.035112,-0.00079959,0.010294,-5.4404e-05,0,0,0.064527,-0.028842,0,-0.0002829,0,0,0,0.035112,-0.00079975,0.010294,-0.086837,0.014868,0.031848,1.0061e-06,0.82,0.72,0
0.039129,-0.0071738,0.035042,-0.00086386,0.010253,-2.8656e-05,0,0,0.064449,-0.028905,0,-0.00014901,0,0,0,0.035042,-0.00086396,0.010253,-0.045742,0.01481,0.031838,1.002e-06,0.83,0.72,0
0.039773,-0.0071886,0.034975,-0.00092025,0.010217,-6.4136e-06,0,0,0.064373,-0.028956,0,-3.3351e-05,0,0,0,0.034975,-0.00092031,0.010217,-0.010235,0.014757,0.031824,9.9794e-07,0.84,0.72,0
0.040416,-0.0072021,0.034913,-0.0009696,0.010183,1.2362e-05,0,0,0.064298,-0.028997,0,6.428e-05,0,0,0,0.034913,-0.00096966,0.010183,0.019753,0.014709,0.031808,9.9405e-07,0.85,0.72,0
0.041059,-0.0072145,0.034855,-0.0010127,0.010153,2.7765e-05,0,0,0.064226,-0.02903,0,0.00014438,0,0,0,0.034855,-0.0010127,0.010153,0.044377,0.014665,0.031791,9.9033e-07,0.86,0.72,0
0.041701,-0.0072257,0.034801,-0.0010501,0.010125,3.9935e-05,0,0,0.064157,-0.029056,0,0.00020766,0,0,0,0.034801,-0.0010502,0.010125,0.063854,0.014625,0.031773,9.868e-07,0.87,0.72,0
0.042342,-0.0072358,0.034751,-0.0010826,0.0101,4.9041e-05,0,0,0.06409,-0.029076,0,0.00025501,0,0,0,0.034751,-0.0010827,0.0101,0.07845,0.014589,0.031755,9.8347e-07,0.88,0.72,0
0.042982,-0.0072448,0.034704,-0.0011107,0.010078,5.5275e-05,0,0,0.064028,-0.029091,0,0.00028743,0,0,0,0.034704,-0.0011108,0.010078,0.088467,0.014557,0.031736,9.8036e-07,0.89,0.72,0
0.043622,-0.0072528,0.034662,-0.0011348,0.010058,5.8849e-05,0,0,0.06397,-0.029102,0,0.00030602,0,0,0,0.034662,-0.0011349,0.010058,0.094233,0.014529,0.031718,9.7748e-07,0.9,0.72,0
0.044262,-0.0072599,0.034624,-0.0011554,0.010041,5.9985e-05,0,0,0.063917,-0.029109,0,0.00031192,0,0,0,0.034624,-0.0011555,0.010041,0.096097,0.014503,0.031701,9.7485e-07,0.91,0.72,0
0.044901,-0.0072661,0.03459,-0.0011728,0.010025,5.8914e-05,0,0,0.063868,-0.029114,0,0.00030636,0,0,0,0.03459,-0.0011729,0.010025,0.094425,0.014481,0.031684,9.7247e-07,0.92,0.72,0
0.045539,-0.0072714,0.03456,-0.0011874,0.010012,5.5875e-05,0,0,0.063825,-0.029118,0,0.00029055,0,0,0,0.03456,-0.0011875,0.010012,0.089591,0.014461,0.031669,9.7035e-07,0.93,0.72,0
0.046177,-0.0072759,0.034533,-0.0011996,0.01,5.1108e-05,0,0,0.063787,-0.029119,0,0.00026576,0,0,0,0.034534,-0.0011997,0.01,0.08198,0.014445,0.031656,9.685e-07,0.94,0.72,0
0.046815,-0.0072797,0.034511,-0.0012094,0.0099906,4.4858e-05,0,0,0.063754,-0.02912,0,0.00023326,0,0,0,0.034511,-0.0012095,0.0099906,0.071979,0.014431,0.031644,9.6692e-07,0.95,0.72,0
0.047452,-0.0072827,0.034493,-0.0012172,0.0099828,3.7372e-05,0,0,0.063727,-0.02912,0,0.00019433,0,0,0,0.034493,-0.0012173,0.0099828,0.059983,0.01442,0.031634,9.6563e-07,0.96,0.72,0
0.048089,-0.0072851,0.034479,-0.0012231,0.0099768,2.8895e-05,0,0,0.063706,-0.02912,0,0.00015026,0,0,0,0.034479,-0.0012232,0.0099768,0.046389,0.014411,0.031627,9.6462e-07,0.97,0.72,0
0.048726,-0.0072867,0.034469,-0.0012273,0.0099726,1.9676e-05,0,0,0.063691,-0.02912,0,0.00010232,0,0,0,0.034469,-0.0012273,0.0099726,0.031593,0.014405,0.031621,9.639e-07,0.98,0.72,0
0.049363,-0.0072877,0.034463,-0.0012297,0.0099701,8.3982e-06,0,0,0.063682,-0.029119,0,4.3671e-05,0,0,0,0.034463,-0.0012297,0.0099701,0.013487,0.014401,0.031617,9.6346e-07,0.99,0.72,0
0.049682,-0.007288,0.034461,-0.0012305,0.0099692,1.8847e-06,0,0,0.063679,-0.029119,0,9.8003e-06,0,0,0,0.034461,-0.0012305,0.0099692,0.0030284,0.0144,0.031616,9.6332e-07,1,0.72,0
0.00022576,-8.2545e-05,0.030371,0.012778,0.012945,-0.0031682,0,0,0.045307,-0.00043231,0,-0.016475,0,0,0,0.030925,0.012225,0.012945,-9.9041,0.018698,0.018351,3.1572e-07,0,0.73,0
0.00045307,-0.00016481,0.030402,0.012551,0.012886,-0.0031551,0,0,0.045542,-0.00087119,0,-0.016406,0,0,0,0.030944,0.012009,0.012886,-9.7363,0.018613,0.018514,3.2343e-07,0.01,0.73,0
0.00091084,-0.00032857,0.030517,0.012111,0.012788,-0.0031163,0,0,0.046094,-0.0017607,0,-0.016205,0,0,0,0.031031,0.011597,0.012788,-9.3575,0.018472,0.018868,3.4038e-07,0.02,0.73,0
0.001375,-0.00049038,0.030683,0.011683,0.01271,-0.003054,0,0,0.046731,-0.0026709,0,-0.015881,0,0,0,0.031163,0.011203,0.01271,-8.9143,0.018359,0.019252,3.5897e-07,0.03,0.73,0
0.0018455,-0.00064945,0.030849,0.011245,0.012628,-0.00297,0,0,0.047374,-0.0035964,0,-0.015444,0,0,0,0.03129,0.010804,0.012628,-8.4325,0.018241,0.019639,3.7776e-07,0.04,0.73,0
0.0023224,-0.00080505,0.031013,0.010801,0.012544,-0.0028653,0,0,0.048018,-0.0045318,0,-0.0149,0,0,0,0.031412,0.010402,0.012544,-7.9193,0.018119,0.020027,3.9667e-07,0.05,0.73,0
0.0028058,-0.00095654,0.031173,0.010353,0.012458,-0.002741,0,0,0.04866,-0.005472,0,-0.014253,0,0,0,0.031529,0.0099971,0.012458,-7.3802,0.017995,0.020414,4.1564e-07,0.06,0.73,0
0.0032956,-0.0011033,0.031329,0.0099034,0.01237,-0.0025979,0,0,0.049294,-0.0064125,0,-0.013509,0,0,0,0.031641,0.0095915,0.01237,-6.8203,0.017867,0.020801,4.3459e-07,0.07,0.73,0
0.0037917,-0.0012448,0.031479,0.0094534,0.01228,-0.0024372,0,0,0.049919,-0.0073488,0,-0.012673,0,0,0,0.031747,0.0091855,0.01228,-6.2436,0.017738,0.021186,4.5347e-07,0.08,0.73,0
0.004294,-0.0013805,0.031624,0.0090052,0.012189,-0.0022598,0,0,0.050531,-0.008277,0,-0.011751,0,0,0,0.031849,0.0087802,0.012189,-5.6544,0.017606,0.021568,4.7224e-07,0.09,0.73,0
0.0048024,-0.0015101,0.031761,0.0085604,0.012097,-0.0020673,0,0,0.051128,-0.0091939,0,-0.01075,0,0,0,0.031946,0.0083761,0.012097,-5.0566,0.017473,0.021948,4.9084e-07,0.1,0.73,0
0.0053166,-0.0016333,0.031892,0.0081206,0.012004,-0.0018612,0,0,0.051709,-0.010096,0,-0.0096784,0,0,0,0.032038,0.0079742,0.012004,-4.4543,0.017339,0.022324,5.0927e-07,0.11,0.73,0
0.0058365,-0.0017499,0.032015,0.0076873,0.011911,-0.0016437,0,0,0.05227,-0.010981,0,-0.0085471,0,0,0,0.032127,0.0075752,0.011911,-3.8519,0.017204,0.022697,5.2748e-07,0.12,0.73,0
0.006362,-0.0018598,0.03213,0.0072621,0.011818,-0.0014169,0,0,0.052812,-0.011844,0,-0.007368,0,0,0,0.032212,0.0071801,0.011818,-3.2544,0.01707,0.023066,5.4546e-07,0.13,0.73,0
0.0068928,-0.0019632,0.032238,0.0068469,0.011726,-0.0011837,0,0,0.053333,-0.012685,0,-0.0061555,0,0,0,0.032295,0.0067904,0.011726,-2.667,0.016937,0.023431,5.6318e-07,0.14,0.73,0
0.0074287,-0.0020602,0.032339,0.0064438,0.011635,-0.00094725,0,0,0.053831,-0.013497,0,-0.0049257,0,0,0,0.032375,0.0064078,0.011635,-2.0954,0.016806,0.023789,5.8059e-07,0.15,0.73,0
0.0079694,-0.0021515,0.032434,0.0060554,0.011547,-0.00071098,0,0,0.054306,-0.014277,0,-0.0036971,0,0,0,0.032454,0.006035,0.011547,-1.5457,0.016679,0.02414,5.9761e-07,0.16,0.73,0
0.0085148,-0.0022375,0.032522,0.0056849,0.011462,-0.00047893,0,0,0.054755,-0.01502,0,-0.0024904,0,0,0,0.032531,0.0056752,0.011462,-1.0244,0.016556,0.024482,6.1416e-07,0.17,0.73,0
0.0090645,-0.0023194,0.032605,0.0053362,0.011382,-0.00025561,0,0,0.055178,-0.01572,0,-0.0013292,0,0,0,0.032608,0.0053328,0.011382,-0.53885,0.016441,0.024811,6.3013e-07,0.18,0.73,0
0.0096183,-0.0023982,0.032684,0.0050136,0.011309,-4.624e-05,0,0,0.055574,-0.016369,0,-0.00024045,0,0,0,0.032685,0.0050127,0.011309,-0.096954,0.016336,0.025123,6.4541e-07,0.19,0.73,0
0.010176,-0.0024755,0.032761,0.0047226,0.011245,0.00014308,0,0,0.055942,-0.016959,0,0.00074399,0,0,0,0.032763,0.0047212,0.011245,0.29185,0.016243,0.025416,6.5988e-07,0.2,0.73,0
0.010737,-0.002553,0.03284,0.0044694,0.011193,0.00030508,0,0,0.056283,-0.017481,0,0.0015864,0,0,0,0.032844,0.0044656,0.011193,0.6163,0.016167,0.025684,6.7342e-07,0.21,0.73,0
0.011302,-0.0026332,0.032923,0.0042618,0.011156,0.00043107,0,0,0.056596,-0.017924,0,0.0022415,0,0,0,0.03293,0.0042549,0.011156,0.86255,0.016114,0.025923,6.8593e-07,0.22,0.73,0
0.011869,-0.0027185,0.033016,0.0041096,0.011138,0.0005104,0,0,0.056883,-0.018273,0,0.0026541,0,0,0,0.033025,0.0041004,0.011138,1.0132,0.016088,0.026127,6.9727e-07,0.23,0.73,0
0.012439,-0.0028124,0.033121,0.0040266,0.011144,0.00052944,0,0,0.057139,-0.018506,0,0.0027531,0,0,0,0.033131,0.0040167,0.011144,1.0449,0.016097,0.026285,7.0716e-07,0.24,0.73,0
0.013012,-0.002919,0.033238,0.0040343,0.011182,0.00046798,0,0,0.057347,-0.018583,0,0.0024335,0,0,0,0.033246,0.0040262,0.011182,0.92089,0.016151,0.026381,7.1486e-07,0.25,0.73,0
0.013586,-0.0030436,0.033353,0.0041699,0.011257,0.0002695,0,0,0.057449,-0.018426,0,0.0014014,0,0,0,0.033357,0.0041655,0.011257,0.53041,0.01626,0.026371,7.1821e-07,0.26,0.73,0
0.014161,-0.0031969,0.033909,0.0039763,0.011366,0.00017975,0,0,0.055121,-0.017786,0,0.00060674,0,0,0,0.033915,0.0039698,0.011366,0.28612,0.016417,0.027024,7.888e-07,0.27,0.73,0
0.014696,-0.0033659,0.03395,0.0026378,0.010976,6.2165e-05,0,0,0.047722,-0.01655,0,-0.00014939,0,0,0,0.033969,0.002619,0.010976,-0.045093,0.015855,0.028139,8.7367e-07,0.28,0.73,0
0.015126,-0.0035057,0.032983,0.00052477,0.010052,-0.00021388,0,0,0.038353,-0.015225,0,-0.0011627,0,0,0,0.033005,0.00050265,0.010052,-0.56211,0.01452,0.028955,8.5793e-07,0.29,0.73,0
0.015463,-0.0036085,0.03289,-0.00098862,0.0095704,-8.2908e-05,0,0,0.032451,-0.014467,0,-0.00053425,0,0,0,0.032899,-0.00099784,0.0095704,-0.22789,0.013824,0.030047,8.5265e-07,0.3,0.73,0
0.015771,-0.0037053,0.033295,-0.0014984,0.0095391,0.0001779,0,0,0.030883,-0.014349,0,0.00046255,0,0,0,0.033297,-0.0014998,0.0095391,0.29479,0.013779,0.030798,8.7814e-07,0.31,0.73,0
0.01608,-0.0038075,0.033332,-0.0016139,0.0095154,0.00021514,0,0,0.030961,-0.014468,0,0.00055935,0,0,0,0.033333,-0.0016154,0.0095154,0.35386,0.013744,0.030924,8.8283e-07,0.32,0.73,0
0.01639,-0.0039134,0.033411,-0.0016369,0.0095323,0.00020624,0,0,0.031043,-0.01452,0,0.00053622,0,0,0,0.033413,-0.0016382,0.0095323,0.3377,0.013769,0.031013,8.8925e-07,0.33,0.73,0
0.016701,-0.0040236,0.033478,-0.0015468,0.0095795,0.00016756,0,0,0.031069,-0.014464,0,0.00043567,0,0,0,0.033479,-0.0015477,0.0095795,0.2744,0.013837,0.030999,8.922e-07,0.34,0.73,0
0.017012,-0.0041378,0.033542,-0.0013945,0.0096442,0.00014196,0,0,0.031067,-0.01435,0,0.00036908,0,0,0,0.033542,-0.0013951,0.0096442,0.23325,0.01393,0.030932,8.9336e-07,0.35,0.73,0
0.017322,-0.0042554,0.033621,-0.0012256,0.0097185,0.00013692,0,0,0.031073,-0.014227,0,0.00035598,0,0,0,0.033621,-0.0012263,0.0097185,0.22577,0.014038,0.030866,8.9531e-07,0.36,0.73,0
0.017633,-0.0043756,0.033725,-0.0010623,0.0097988,0.0001431,0,0,0.031104,-0.014119,0,0.00037207,0,0,0,0.033726,-0.0010631,0.0097988,0.23641,0.014154,0.030828,8.9936e-07,0.37,0.73,0
0.017944,-0.0044977,0.033853,-0.00091103,0.0098827,0.00014887,0,0,0.031162,-0.014032,0,0.00038707,0,0,0,0.033854,-0.00091198,0.0098827,0.24598,0.014275,0.030821,9.0561e-07,0.38,0.73,0
0.018256,-0.0046214,0.033999,-0.0007701,0.0099686,0.00014603,0,0,0.031239,-0.01396,0,0.00037968,0,0,0,0.034,-0.00077107,0.0099686,0.24107,0.014399,0.030837,9.1345e-07,0.39,0.73,0
0.018569,-0.0047464,0.034153,-0.00063396,0.010056,0.00013106,0,0,0.031326,-0.013896,0,0.00034075,0,0,0,0.034153,-0.00063483,0.010056,0.21606,0.014525,0.030864,9.2208e-07,0.4,0.73,0
0.018883,-0.0048726,0.034307,-0.00049661,0.010143,0.00010463,0,0,0.031413,-0.013832,0,0.00027205,0,0,0,0.034307,-0.00049728,0.010143,0.17226,0.014651,0.030891,9.3071e-07,0.41,0.73,0
0.019197,-0.0049998,0.034456,-0.00035367,0.010231,7.0513e-05,0,0,0.031492,-0.01376,0,0.00018333,0,0,0,0.034456,-0.00035414,0.010231,0.1159,0.014777,0.030908,9.3876e-07,0.42,0.73,0
0.019513,-0.0051276,0.034595,-0.00020359,0.010318,3.4107e-05,0,0,0.031561,-0.013678,0,8.8679e-05,0,0,0,0.034596,-0.00020391,0.010318,0.055895,0.014903,0.030912,9.4588e-07,0.43,0.73,0
0.019829,-0.0052558,0.034726,-4.7839e-05,0.010403,1.1496e-06,0,0,0.031619,-0.013587,0,2.9887e-06,0,0,0,0.034726,-4.8076e-05,0.010403,0.001586,0.015027,0.030903,9.5202e-07,0.44,0.73,0
0.020145,-0.0053841,0.034847,0.00010955,0.010487,-2.3415e-05,0,0,0.031668,-0.013491,0,-6.0879e-05,0,0,0,0.034847,0.00010933,0.010487,-0.038934,0.015148,0.030885,9.5735e-07,0.45,0.73,0
0.020462,-0.0055119,0.034961,0.00026291,0.010567,-3.6134e-05,0,0,0.031712,-0.013395,0,-9.3948e-05,0,0,0,0.034961,0.00026269,0.010567,-0.059965,0.015264,0.030864,9.622e-07,0.46,0.73,0
0.020779,-0.005639,0.035071,0.00040608,0.010643,-3.5289e-05,0,0,0.031756,-0.013308,0,-9.1752e-05,0,0,0,0.035071,0.00040588,0.010643,-0.058612,0.015373,0.030848,9.6696e-07,0.47,0.73,0
0.021097,-0.0057647,0.035179,0.00053336,0.010714,-2.0735e-05,0,0,0.031805,-0.013235,0,-5.3912e-05,0,0,0,0.035179,0.00053317,0.010714,-0.034576,0.015475,0.030843,9.7207e-07,0.48,0.73,0
0.021416,-0.0058888,0.035289,0.00064007,0.010779,6.5349e-06,0,0,0.031863,-0.01318,0,1.6991e-05,0,0,0,0.035289,0.00063988,0.010779,0.010496,0.015569,0.030855,9.7788e-07,0.49,0.73,0
0.021734,-0.0060108,0.035401,0.0007228,0.010837,4.4897e-05,0,0,0.031933,-0.013149,0,0.00011673,0,0,0,0.035401,0.00072253,0.010837,0.07382,0.015653,0.030889,9.8469e-07,0.5,0.73,0
0.022054,-0.0061304,0.035517,0.00077921,0.010889,9.2515e-05,0,0,0.032017,-0.013143,0,0.00024054,0,0,0,0.035518,0.00077872,0.010889,0.15216,0.015728,0.030948,9.9275e-07,0.51,0.73,0
0.022375,-0.0062472,0.03564,0.00080762,0.010934,0.00014754,0,0,0.032117,-0.013164,0,0.0003836,0,0,0,0.03564,0.00080673,0.010934,0.24216,0.015794,0.031035,1.0023e-06,0.52,0.73,0
0.022697,-0.0063612,0.035769,0.0008067,0.010973,0.000208,0,0,0.032236,-0.013216,0,0.00054081,0,0,0,0.035771,0.00080516,0.010973,0.34022,0.01585,0.031152,1.0135e-06,0.53,0.73,0
0.023019,-0.006472,0.035908,0.00077535,0.011005,0.00027149,0,0,0.032374,-0.013299,0,0.00070587,0,0,0,0.035911,0.00077291,0.011005,0.44196,0.015896,0.031302,1.0266e-06,0.54,0.73,0
0.023344,-0.0065795,0.036057,0.00071331,0.011031,0.00033469,0,0,0.032534,-0.013413,0,0.00087019,0,0,0,0.036061,0.00070976,0.011031,0.5416,0.015934,0.031486,1.0417e-06,0.55,0.73,0
0.02367,-0.0066836,0.036214,0.00062256,0.011051,0.00039369,0,0,0.032712,-0.013557,0,0.0010236,0,0,0,0.036218,0.00061781,0.011051,0.63266,0.015962,0.031699,1.0586e-06,0.56,0.73,0
0.023998,-0.0067844,0.036365,0.00051254,0.011063,0.00044771,0,0,0.032892,-0.013716,0,0.0011641,0,0,0,0.036371,0.00050658,0.011063,0.71432,0.01598,0.031923,1.0758e-06,0.57,0.73,0
0.024328,-0.0068816,0.036495,0.00040783,0.011071,0.00051115,0,0,0.033051,-0.013862,0,0.001329,0,0,0,0.036503,0.00040027,0.011071,0.81049,0.015991,0.032125,1.0911e-06,0.58,0.73,0
0.024659,-0.0069746,0.036605,0.00032902,0.01108,0.00062787,0,0,0.033182,-0.013977,0,0.0016325,0,0,0,0.036617,0.00031754,0.01108,0.99083,0.016005,0.032292,1.1042e-06,0.59,0.73,0
0.024992,-0.0070619,0.036761,0.00021238,0.011092,0.00079462,0,0,0.03337,-0.014144,0,0.002066,0,0,0,0.03678,0.0001941,0.011092,1.2451,0.016022,0.032536,1.1237e-06,0.6,0.73,0
0.025327,-0.0071457,0.036511,0.00036725,0.011063,0.0011557,0,0,0.035479,-0.014691,0,0.0036001,0,0,0,0.036561,0.00031752,0.011063,1.9206,0.015981,0.032248,1.1208e-06,0.61,0.73,0
0.025697,-0.0072114,0.036738,0.0013582,0.011429,0.0012966,0,0,0.042499,-0.01623,0,0.0049226,0,0,0,0.036814,0.0012821,0.011429,2.307,0.016508,0.031718,1.1612e-06,0.62,0.73,0
0.026176,-0.0072184,0.037823,0.0028568,0.012204,0.00093394,0,0,0.053384,-0.018748,0,0.0043918,0,0,0,0.037873,0.0028066,0.012204,1.7126,0.017628,0.031458,1.2111e-06,0.63,0.73,0
0.026776,-0.0071738,0.037797,0.0037019,0.01245,0.00070953,0,0,0.062047,-0.021155,0,0.0037812,0,0,0,0.037819,0.0036802,0.01245,1.2522,0.017983,0.030714,1.1207e-06,0.64,0.73,0
0.027425,-0.0071341,0.037205,0.0034312,0.012191,0.00050089,0,0,0.065036,-0.022775,0,0.0026046,0,0,0,0.037216,0.0034204,0.012191,0.85613,0.017609,0.030376,1.0449e-06,0.65,0.73,0
0.028077,-0.0071185,0.037058,0.0027705,0.011949,0.00016396,0,0,0.065285,-0.023863,0,0.00085257,0,0,0,0.03706,0.0027684,0.011949,0.2765,0.017259,0.030748,1.0563e-06,0.66,0.73,0
0.028731,-0.0071174,0.036888,0.0022367,0.011737,-3.8939e-05,0,0,0.065391,-0.024702,0,-0.00020248,0,0,0,0.036889,0.0022359,0.011737,-0.063235,0.016954,0.031014,1.0611e-06,0.67,0.73,0
0.029385,-0.0071261,0.036719,0.001789,0.011553,-0.00016864,0,0,0.065434,-0.025385,0,-0.00087693,0,0,0,0.036721,0.0017877,0.011553,-0.27619,0.016687,0.031218,1.0625e-06,0.68,0.73,0
0.030039,-0.0071418,0.03656,0.0014049,0.011389,-0.00024635,0,0,0.065443,-0.02596,0,-0.001281,0,0,0,0.036562,0.0014028,0.011389,-0.40146,0.016451,0.031381,1.0621e-06,0.69,0.73,0
0.030694,-0.0071623,0.03641,0.0010711,0.011244,-0.00028604,0,0,0.065431,-0.02645,0,-0.0014874,0,0,0,0.036413,0.0010685,0.011244,-0.46393,0.016242,0.031514,1.0605e-06,0.7,0.73,0
0.031348,-0.007186,0.036269,0.00077922,0.011115,-0.00029819,0,0,0.065402,-0.026872,0,-0.0015506,0,0,0,0.036272,0.00077645,0.011115,-0.48167,0.016054,0.031621,1.0579e-06,0.71,0.73,0
0.032002,-0.0072115,0.036136,0.00052308,0.010998,-0.00029086,0,0,0.06536,-0.027234,0,-0.0015125,0,0,0,0.036139,0.00052046,0.010998,-0.46824,0.015886,0.031706,1.0546e-06,0.72,0.73,0
0.032655,-0.0072381,0.036009,0.00029795,0.010892,-0.00027025,0,0,0.065305,-0.027545,0,-0.0014053,0,0,0,0.036012,0.00029568,0.010892,-0.43388,0.015733,0.031772,1.0507e-06,0.73,0.73,0
0.033308,-0.0072649,0.035888,9.9943e-05,0.010797,-0.00024108,0,0,0.065239,-0.027811,0,-0.0012536,0,0,0,0.03589,9.8108e-05,0.010797,-0.38622,0.015595,0.031822,1.0464e-06,0.74,0.73,0
0.03396,-0.0072913,0.035773,-7.4237e-05,0.01071,-0.0002069,0,0,0.065164,-0.028038,0,-0.0010759,0,0,0,0.035774,-7.5629e-05,0.01071,-0.33093,0.015469,0.031857,1.0417e-06,0.75,0.73,0
0.034611,-0.0073171,0.035662,-0.00022743,0.01063,-0.00017036,0,0,0.065083,-0.02823,0,-0.00088586,0,0,0,0.035663,-0.00022842,0.01063,-0.27216,0.015355,0.031881,1.0367e-06,0.76,0.73,0
0.035262,-0.0073419,0.035557,-0.00036211,0.010558,-0.00013339,0,0,0.064995,-0.028393,0,-0.00069365,0,0,0,0.035557,-0.00036277,0.010558,-0.21294,0.015251,0.031894,1.0316e-06,0.77,0.73,0
0.035911,-0.0073655,0.035456,-0.00048042,0.010493,-9.7403e-05,0,0,0.064904,-0.02853,0,-0.00050649,0,0,0,0.035456,-0.00048084,0.010493,-0.15541,0.015156,0.031899,1.0264e-06,0.78,0.73,0
0.03656,-0.0073879,0.035359,-0.00058427,0.010433,-6.3375e-05,0,0,0.06481,-0.028644,0,-0.00032955,0,0,0,0.03536,-0.00058452,0.010433,-0.1011,0.015069,0.031896,1.0211e-06,0.79,0.73,0
0.037207,-0.0074088,0.035268,-0.00067531,0.010378,-3.1987e-05,0,0,0.064715,-0.028738,0,-0.00016633,0,0,0,0.035268,-0.00067547,0.010378,-0.051034,0.01499,0.031888,1.0159e-06,0.8,0.73,0
0.037854,-0.0074283,0.035181,-0.00075502,0.010328,-3.6809e-06,0,0,0.064619,-0.028816,0,-1.9141e-05,0,0,0,0.035182,-0.00075513,0.010328,-0.0058876,0.014918,0.031875,1.0108e-06,0.81,0.73,0
0.0385,-0.0074464,0.035099,-0.00082468,0.010282,2.1277e-05,0,0,0.064524,-0.028879,0,0.00011064,0,0,0,0.0351,-0.00082479,0.010282,0.033938,0.014852,0.031858,1.0058e-06,0.82,0.73,0
0.039145,-0.007463,0.035022,-0.00088545,0.010241,4.2756e-05,0,0,0.064431,-0.028929,0,0.00022233,0,0,0,0.035022,-0.00088559,0.010241,0.068244,0.014793,0.031838,1.0009e-06,0.83,0.73,0
0.039788,-0.0074783,0.03495,-0.00093835,0.010203,6.0723e-05,0,0,0.06434,-0.028968,0,0.00031576,0,0,0,0.03495,-0.00093853,0.010203,0.09698,0.014738,0.031816,9.9627e-07,0.84,0.73,0
0.040431,-0.0074922,0.034882,-0.00098429,0.010169,7.5222e-05,0,0,0.064252,-0.028999,0,0.00039116,0,0,0,0.034882,-0.00098451,0.010169,0.12021,0.014689,0.031792,9.9181e-07,0.85,0.73,0
0.041073,-0.0075048,0.034818,-0.0010241,0.010138,8.6354e-05,0,0,0.064168,-0.029022,0,0.00044904,0,0,0,0.034818,-0.0010243,0.010138,0.13809,0.014644,0.031768,9.8757e-07,0.86,0.73,0
0.041715,-0.0075162,0.034759,-0.0010584,0.01011,9.4258e-05,0,0,0.064088,-0.029039,0,0.00049014,0,0,0,0.03476,-0.0010587,0.01011,0.15083,0.014604,0.031744,9.8357e-07,0.87,0.73,0
0.042355,-0.0075264,0.034705,-0.0010879,0.010085,9.9108e-05,0,0,0.064012,-0.02905,0,0.00051536,0,0,0,0.034705,-0.0010882,0.010085,0.1587,0.014567,0.031719,9.7983e-07,0.88,0.73,0
0.042995,-0.0075356,0.034655,-0.0011132,0.010063,0.0001011,0,0,0.063941,-0.029057,0,0.00052572,0,0,0,0.034656,-0.0011136,0.010063,0.162,0.014535,0.031695,9.7636e-07,0.89,0.73,0
0.043634,-0.0075437,0.03461,-0.0011348,0.010043,0.00010044,0,0,0.063876,-0.029061,0,0.00052231,0,0,0,0.03461,-0.0011351,0.010043,0.16106,0.014506,0.031672,9.7316e-07,0.9,0.73,0
0.044272,-0.0075508,0.034569,-0.0011531,0.010025,9.7365e-05,0,0,0.063815,-0.029063,0,0.0005063,0,0,0,0.034569,-0.0011534,0.010025,0.15622,0.01448,0.031651,9.7025e-07,0.91,0.73,0
0.04491,-0.007557,0.034533,-0.0011685,0.010009,9.2094e-05,0,0,0.063761,-0.029062,0,0.00047889,0,0,0,0.034533,-0.0011687,0.010009,0.14785,0.014458,0.03163,9.6762e-07,0.92,0.73,0
0.045548,-0.0075623,0.034501,-0.0011813,0.0099958,8.4869e-05,0,0,0.063713,-0.02906,0,0.00044132,0,0,0,0.034501,-0.0011815,0.0099958,0.13632,0.014438,0.031612,9.653e-07,0.93,0.73,0
0.046185,-0.0075669,0.034473,-0.0011918,0.0099843,7.5931e-05,0,0,0.06367,-0.029058,0,0.00039484,0,0,0,0.034473,-0.001192,0.0099843,0.12202,0.014422,0.031596,9.6327e-07,0.94,0.73,0
0.046821,-0.0075706,0.034449,-0.0012003,0.0099747,6.5522e-05,0,0,0.063634,-0.029055,0,0.00034072,0,0,0,0.03445,-0.0012004,0.0099747,0.10534,0.014408,0.031582,9.6155e-07,0.95,0.73,0
0.047457,-0.0075736,0.03443,-0.001207,0.009967,5.3889e-05,0,0,0.063605,-0.029052,0,0.00028022,0,0,0,0.03443,-0.0012071,0.009967,0.086667,0.014397,0.03157,9.6014e-07,0.96,0.73,0
0.048093,-0.0075759,0.034415,-0.001212,0.009961,4.1274e-05,0,0,0.063582,-0.02905,0,0.00021463,0,0,0,0.034415,-0.0012121,0.009961,0.066398,0.014388,0.031561,9.5904e-07,0.97,0.73,0
0.048729,-0.0075776,0.034405,-0.0012156,0.0099568,2.7925e-05,0,0,0.063565,-0.029048,0,0.00014521,0,0,0,0.034405,-0.0012156,0.0099568,0.044931,0.014382,0.031554,9.5826e-07,0.98,0.73,0
0.049364,-0.0075785,0.034398,-0.0012176,0.0099543,1.2534e-05,0,0,0.063555,-0.029047,0,6.5177e-05,0,0,0,0.034398,-0.0012176,0.0099543,0.020171,0.014378,0.03155,9.5779e-07,0.99,0.73,0
0.049682,-0.0075789,0.034396,-0.0012183,0.0099534,3.9714e-06,0,0,0.063552,-0.029046,0,2.0652e-05,0,0,0,0.034396,-0.0012183,0.0099534,0.0063929,0.014377,0.031549,9.5763e-07,1,0.73,0
0.00022586,-8.7007e-05,0.030382,0.012768,0.012945,-0.0033398,0,0,0.045337,-0.00046078,0,-0.017367,0,0,0,0.030995,0.012155,0.012945,-10.384,0.018698,0.018458,3.2098e-07,0,0.74,0
0.00045337,-0.0001738,0.030416,0.012526,0.012883,-0.003327,0,0,0.045587,-0.00092715,0,-0.0173,0,0,0,0.031016,0.011926,0.012883,-10.204,0.018608,0.018631,3.2917e-07,0.01,0.74,0
0.00091173,-0.00034671,0.030538,0.01206,0.01278,-0.003289,0,0,0.046173,-0.00187,0,-0.017103,0,0,0,0.031108,0.011491,0.01278,-9.8016,0.01846,0.019006,3.4719e-07,0.02,0.74,0
0.0013768,-0.00051787,0.030717,0.011609,0.012698,-0.0032268,0,0,0.046849,-0.0028308,0,-0.016779,0,0,0,0.031248,0.011077,0.012698,-9.3355,0.018341,0.019412,3.6694e-07,0.03,0.74,0
0.0018487,-0.00068643,0.030894,0.01115,0.012613,-0.0031416,0,0,0.047531,-0.0038051,0,-0.016336,0,0,0,0.031383,0.01066,0.012613,-8.8307,0.018219,0.01982,3.8686e-07,0.04,0.74,0
0.0023274,-0.00085162,0.031071,0.010685,0.012527,-0.0030346,0,0,0.048214,-0.004788,0,-0.01578,0,0,0,0.031514,0.010242,0.012527,-8.2943,0.018094,0.020228,4.069e-07,0.05,0.74,0
0.002813,-0.0010127,0.031245,0.010218,0.012439,-0.0029067,0,0,0.048895,-0.0057747,0,-0.015115,0,0,0,0.031641,0.0098217,0.012439,-7.7321,0.017967,0.020636,4.2701e-07,0.06,0.74,0
0.0033054,-0.0011691,0.031415,0.009749,0.012349,-0.0027592,0,0,0.049571,-0.0067606,0,-0.014348,0,0,0,0.031763,0.0094016,0.012349,-7.1494,0.017838,0.021043,4.4714e-07,0.07,0.74,0
0.0038044,-0.0013202,0.031581,0.0092815,0.012259,-0.0025931,0,0,0.050239,-0.0077411,0,-0.013484,0,0,0,0.031881,0.0089823,0.012259,-6.5507,0.017707,0.021449,4.6725e-07,0.08,0.74,0
0.0043101,-0.0014654,0.031743,0.0088171,0.012168,-0.0024098,0,0,0.050894,-0.0087122,0,-0.012531,0,0,0,0.031995,0.0085649,0.012168,-5.9406,0.017576,0.021853,4.8729e-07,0.09,0.74,0
0.0048223,-0.0016044,0.031899,0.0083578,0.012077,-0.0022108,0,0,0.051537,-0.0096699,0,-0.011496,0,0,0,0.032106,0.0081502,0.012077,-5.3234,0.017444,0.022255,5.0724e-07,0.1,0.74,0
0.0053409,-0.0017368,0.032049,0.0079053,0.011986,-0.0019982,0,0,0.052163,-0.010611,0,-0.010391,0,0,0,0.032215,0.0077393,0.011986,-4.7035,0.017314,0.022654,5.2708e-07,0.11,0.74,0
0.0058656,-0.0018624,0.032194,0.0074616,0.011897,-0.001774,0,0,0.052773,-0.011531,0,-0.0092247,0,0,0,0.032322,0.0073333,0.011897,-4.0858,0.017184,0.023049,5.4679e-07,0.12,0.74,0
0.0063963,-0.0019812,0.032333,0.0070286,0.011808,-0.0015407,0,0,0.053364,-0.012428,0,-0.0080116,0,0,0,0.032428,0.0069335,0.011808,-3.4752,0.017057,0.023441,5.6636e-07,0.13,0.74,0
0.0069329,-0.0020931,0.032467,0.0066086,0.011723,-0.0013012,0,0,0.053935,-0.013296,0,-0.0067662,0,0,0,0.032534,0.0065416,0.011723,-2.8768,0.016933,0.023828,5.8574e-07,0.14,0.74,0
0.007475,-0.0021984,0.032596,0.006204,0.01164,-0.0010587,0,0,0.054485,-0.014133,0,-0.0055054,0,0,0,0.032639,0.0061601,0.01164,-2.2965,0.016813,0.02421,6.049e-07,0.15,0.74,0
0.0080225,-0.0022975,0.03272,0.005818,0.011561,-0.00081699,0,0,0.055012,-0.014933,0,-0.0042483,0,0,0,0.032746,0.0057918,0.011561,-1.7404,0.0167,0.024583,6.2377e-07,0.16,0.74,0
0.0085752,-0.0023911,0.032841,0.0054542,0.011488,-0.00058014,0,0,0.055516,-0.015689,0,-0.0030167,0,0,0,0.032854,0.0054406,0.011488,-1.2149,0.016594,0.024946,6.4225e-07,0.17,0.74,0
0.0091329,-0.00248,0.032958,0.005117,0.011423,-0.000353,0,0,0.055993,-0.016395,0,-0.0018356,0,0,0,0.032964,0.0051114,0.011423,-0.72761,0.016499,0.025295,6.6021e-07,0.18,0.74,0
0.0096951,-0.0025653,0.033074,0.0048117,0.011366,-0.00014119,0,0,0.056442,-0.017041,0,-0.00073419,0,0,0,0.033076,0.00481,0.011366,-0.28686,0.016417,0.025625,6.7749e-07,0.19,0.74,0
0.010262,-0.0026484,0.03319,0.0045448,0.01132,4.8596e-05,0,0,0.056861,-0.017617,0,0.0002527,0,0,0,0.033191,0.004544,0.01132,0.097291,0.016352,0.025932,6.939e-07,0.2,0.74,0
0.010832,-0.0027311,0.033308,0.0043241,0.01129,0.0002083,0,0,0.057248,-0.01811,0,0.0010832,0,0,0,0.03331,0.004322,0.01129,0.41258,0.016307,0.026208,7.0924e-07,0.21,0.74,0
0.011407,-0.0028155,0.033431,0.0041592,0.011277,0.00032818,0,0,0.0576,-0.018506,0,0.0017065,0,0,0,0.033435,0.0041551,0.011277,0.6438,0.016289,0.026448,7.2331e-07,0.22,0.74,0
0.011984,-0.0029041,0.033565,0.0040628,0.011288,0.00039636,0,0,0.057919,-0.018786,0,0.0020611,0,0,0,0.033571,0.0040571,0.011288,0.77175,0.016305,0.026644,7.3592e-07,0.23,0.74,0
0.012565,-0.0029999,0.033718,0.0040532,0.011331,0.0003982,0,0,0.058204,-0.018923,0,0.0020707,0,0,0,0.033723,0.0040474,0.011331,0.77148,0.016367,0.026787,7.4693e-07,0.24,0.74,0
0.013148,-0.0031067,0.033903,0.004162,0.011419,0.0003137,0,0,0.058457,-0.018869,0,0.0016312,0,0,0,0.033907,0.0041578,0.011419,0.60663,0.016495,0.026865,7.5618e-07,0.25,0.74,0
0.013734,-0.0032291,0.03411,0.0044451,0.011567,0.00011102,0,0,0.058613,-0.018516,0,0.00057728,0,0,0,0.034113,0.0044427,0.011567,0.2143,0.016707,0.026827,7.6103e-07,0.26,0.74,0
0.014321,-0.0033731,0.034467,0.0042032,0.011601,-3.0635e-06,0,0,0.05528,-0.017368,0,-0.00026167,0,0,0,0.034472,0.0041977,0.011601,-0.05202,0.016757,0.02735,8.0378e-07,0.27,0.74,0
0.014843,-0.0035257,0.034488,0.0024932,0.011094,-1.1879e-05,0,0,0.045499,-0.015575,0,-0.00045363,0,0,0,0.0345,0.0024807,0.011094,-0.12915,0.016025,0.028732,8.7843e-07,0.28,0.74,0
0.015236,-0.0036534,0.034037,0.00018488,0.010267,-3.6206e-05,0,0,0.035732,-0.014556,0,-0.00040654,0,0,0,0.03405,0.00017268,0.010267,-0.16844,0.01483,0.030144,9.1647e-07,0.29,0.74,0
0.015558,-0.0037539,0.033979,-0.0011768,0.0098406,0.00010281,0,0,0.032013,-0.014568,0,0.00015626,0,0,0,0.033984,-0.0011822,0.0098406,0.12136,0.014214,0.031155,9.3332e-07,0.3,0.74,0
0.015874,-0.0038509,0.034034,-0.0015276,0.0097521,0.00022311,0,0,0.031567,-0.014664,0,0.0005801,0,0,0,0.034036,-0.0015295,0.0097521,0.35779,0.014086,0.03148,9.3666e-07,0.31,0.74,0
0.016189,-0.0039532,0.033871,-0.0015716,0.0096899,0.00020555,0,0,0.031436,-0.01464,0,0.00053444,0,0,0,0.033873,-0.0015729,0.0096899,0.33167,0.013997,0.031369,9.2432e-07,0.32,0.74,0
0.016503,-0.0040591,0.033804,-0.0015719,0.0096695,0.00018042,0,0,0.031374,-0.014614,0,0.00046909,0,0,0,0.033805,-0.0015729,0.0096695,0.29212,0.013967,0.031309,9.1872e-07,0.33,0.74,0
0.016817,-0.0041687,0.033802,-0.0014979,0.0096913,0.0001361,0,0,0.031344,-0.014546,0,0.00035385,0,0,0,0.033803,-0.0014984,0.0096913,0.22089,0.013999,0.031247,9.1665e-07,0.34,0.74,0
0.01713,-0.0042819,0.033828,-0.0013714,0.009737,9.2845e-05,0,0,0.031318,-0.014441,0,0.0002414,0,0,0,0.033828,-0.0013717,0.009737,0.15121,0.014065,0.031168,9.1545e-07,0.35,0.74,0
0.017443,-0.0043983,0.033873,-0.0012197,0.009796,6.2067e-05,0,0,0.0313,-0.01432,0,0.00016137,0,0,0,0.033873,-0.0012199,0.009796,0.10155,0.01415,0.031085,9.1514e-07,0.36,0.74,0
0.017756,-0.0045173,0.033938,-0.0010618,0.0098628,4.2706e-05,0,0,0.031298,-0.014202,0,0.00011104,0,0,0,0.033938,-0.0010619,0.0098628,0.070209,0.014246,0.031016,9.1623e-07,0.37,0.74,0
0.018069,-0.0046384,0.034022,-0.00090678,0.0099345,2.8547e-05,0,0,0.031314,-0.014094,0,7.4223e-05,0,0,0,0.034022,-0.00090694,0.0099345,0.04713,0.01435,0.030966,9.1886e-07,0.38,0.74,0
0.018382,-0.0047612,0.034121,-0.00075686,0.010009,1.3534e-05,0,0,0.031345,-0.013996,0,3.5189e-05,0,0,0,0.034121,-0.00075704,0.010009,0.022467,0.014458,0.030934,9.228e-07,0.39,0.74,0
0.018696,-0.0048855,0.03423,-0.00061052,0.010086,-5.9287e-06,0,0,0.031387,-0.013905,0,-1.5415e-05,0,0,0,0.03423,-0.00061072,0.010086,-0.0096261,0.014568,0.030913,9.2758e-07,0.4,0.74,0
0.01901,-0.0050109,0.034343,-0.00046505,0.010163,-3.055e-05,0,0,0.031433,-0.013817,0,-7.943e-05,0,0,0,0.034343,-0.00046528,0.010163,-0.05028,0.01468,0.030897,9.3269e-07,0.41,0.74,0
0.019325,-0.0051372,0.034455,-0.00031824,0.010241,-5.8643e-05,0,0,0.031478,-0.013727,0,-0.00015247,0,0,0,0.034456,-0.00031853,0.010241,-0.096717,0.014793,0.030879,9.377e-07,0.42,0.74,0
0.019639,-0.0052641,0.034564,-0.00016944,0.010318,-8.701e-05,0,0,0.03152,-0.013634,0,-0.00022623,0,0,0,0.034565,-0.00016984,0.010318,-0.14369,0.014904,0.030858,9.4236e-07,0.43,0.74,0
0.019955,-0.0053914,0.034669,-1.9901e-05,0.010395,-0.00011191,0,0,0.031556,-0.013539,0,-0.00029096,0,0,0,0.034669,-2.042e-05,0.010395,-0.18503,0.015015,0.030831,9.4657e-07,0.44,0.74,0
0.020271,-0.0055187,0.034768,0.00012743,0.010469,-0.00012987,0,0,0.03159,-0.013444,0,-0.00033766,0,0,0,0.034769,0.0001268,0.010469,-0.21501,0.015122,0.030802,9.5043e-07,0.45,0.74,0
0.020587,-0.0056457,0.034865,0.00026841,0.01054,-0.0001383,0,0,0.031622,-0.013353,0,-0.00035957,0,0,0,0.034865,0.00026773,0.01054,-0.22924,0.015224,0.030775,9.5414e-07,0.46,0.74,0
0.020903,-0.0057719,0.034959,0.00039844,0.010607,-0.00013571,0,0,0.031657,-0.013271,0,-0.00035285,0,0,0,0.03496,0.00039778,0.010607,-0.22519,0.015322,0.030756,9.58e-07,0.47,0.74,0
0.02122,-0.0058969,0.035054,0.00051308,0.01067,-0.00012176,0,0,0.031699,-0.013204,0,-0.00031658,0,0,0,0.035054,0.00051251,0.01067,-0.20219,0.015412,0.030748,9.623e-07,0.48,0.74,0
0.021537,-0.0060205,0.03515,0.00060847,0.010728,-9.6988e-05,0,0,0.031749,-0.013155,0,-0.00025217,0,0,0,0.03515,0.00060805,0.010728,-0.16112,0.015495,0.030758,9.6733e-07,0.49,0.74,0
0.021855,-0.0061422,0.03525,0.00068159,0.010779,-6.2579e-05,0,0,0.031811,-0.013127,0,-0.00016271,0,0,0,0.03525,0.0006813,0.010779,-0.10401,0.01557,0.030788,9.7335e-07,0.5,0.74,0
0.022173,-0.0062617,0.035354,0.00073016,0.010825,-2.0107e-05,0,0,0.031888,-0.013124,0,-5.2279e-05,0,0,0,0.035354,0.00072995,0.010825,-0.033631,0.015637,0.030842,9.8055e-07,0.51,0.74,0
0.022493,-0.0063788,0.035465,0.00075253,0.010865,2.8586e-05,0,0,0.031979,-0.013146,0,7.4325e-05,0,0,0,0.035465,0.00075229,0.010865,0.046743,0.015694,0.030922,9.8913e-07,0.52,0.74,0
0.022813,-0.0064932,0.035582,0.00074756,0.010899,8.138e-05,0,0,0.032088,-0.013197,0,0.00021159,0,0,0,0.035582,0.00074712,0.010899,0.13331,0.015743,0.031031,9.9923e-07,0.53,0.74,0
0.023134,-0.0066048,0.035706,0.00071468,0.010926,0.00013583,0,0,0.032214,-0.013275,0,0.00035316,0,0,0,0.035707,0.00071388,0.010926,0.22175,0.015782,0.031168,1.011e-06,0.54,0.74,0
0.023457,-0.0067135,0.035839,0.0006544,0.010948,0.00018944,0,0,0.032358,-0.013382,0,0.00049254,0,0,0,0.03584,0.00065308,0.010948,0.30771,0.015814,0.031335,1.0244e-06,0.55,0.74,0
0.023782,-0.006819,0.035978,0.00056972,0.010964,0.00024106,0,0,0.032517,-0.013513,0,0.00062675,0,0,0,0.03598,0.00056776,0.010964,0.38917,0.015837,0.031527,1.0393e-06,0.56,0.74,0
0.024108,-0.0069213,0.036123,0.00046801,0.010977,0.00029457,0,0,0.03269,-0.013662,0,0.00076588,0,0,0,0.036126,0.00046523,0.010977,0.47236,0.015856,0.031739,1.0555e-06,0.57,0.74,0
0.024435,-0.00702,0.036289,0.00035856,0.010994,0.00036368,0,0,0.032883,-0.013827,0,0.00094555,0,0,0,0.036293,0.00035441,0.010994,0.57878,0.015881,0.031976,1.0739e-06,0.58,0.74,0
0.024765,-0.0071146,0.036525,0.00024023,0.01103,0.0004639,0,0,0.033144,-0.014026,0,0.0012061,0,0,0,0.036532,0.00023333,0.01103,0.73107,0.015932,0.032284,1.0993e-06,0.59,0.74,0
0.025098,-0.0072048,0.036862,5.7403e-05,0.011076,0.00056832,0,0,0.033522,-0.014324,0,0.0014776,0,0,0,0.036872,4.6915e-05,0.011076,0.88292,0.015998,0.032735,1.1369e-06,0.6,0.74,0
0.025436,-0.0072921,0.036962,9.895e-05,0.011118,0.0007983,0,0,0.034301,-0.014583,0,0.0022712,0,0,0,0.036988,7.268e-05,0.011118,1.2829,0.01606,0.032819,1.1586e-06,0.61,0.74,0
0.025782,-0.0073667,0.037147,0.001014,0.011448,0.00099681,0,0,0.038731,-0.01514,0,0.0033996,0,0,0,0.037193,0.00096839,0.011448,1.6998,0.016536,0.032302,1.1682e-06,0.62,0.74,0
0.02621,-0.0073966,0.037701,0.002781,0.012145,0.00095114,0,0,0.049841,-0.017122,0,0.0042125,0,0,0,0.037744,0.0027377,0.012145,1.6887,0.017542,0.031411,1.1521e-06,0.63,0.74,0
0.026785,-0.0073801,0.037745,0.0040413,0.012536,0.00087743,0,0,0.061003,-0.020039,0,0.0045306,0,0,0,0.037776,0.0040111,0.012536,1.5464,0.018108,0.030427,1.0828e-06,0.64,0.74,0
0.027434,-0.0073596,0.03741,0.0038331,0.012373,0.00067131,0,0,0.065097,-0.022204,0,0.0034908,0,0,0,0.037427,0.0038166,0.012373,1.1538,0.017872,0.030255,1.0477e-06,0.65,0.74,0
0.028087,-0.0073558,0.037199,0.0030305,0.012069,0.00035136,0,0,0.065338,-0.0235,0,0.0018271,0,0,0,0.037204,0.0030253,0.012069,0.59332,0.017433,0.030675,1.0592e-06,0.66,0.74,0
0.028741,-0.0073636,0.036995,0.0024041,0.01182,0.00013719,0,0,0.065456,-0.024481,0,0.00071339,0,0,0,0.036996,0.0024026,0.01182,0.22937,0.017073,0.030978,1.0644e-06,0.67,0.74,0
0.029396,-0.0073796,0.036815,0.0018928,0.011612,-3.9556e-06,0,0,0.065528,-0.025271,0,-2.0569e-05,0,0,0,0.036816,0.0018923,0.011612,-0.005461,0.016774,0.03122,1.0672e-06,0.68,0.74,0
0.030051,-0.0074014,0.03665,0.0014632,0.011434,-9.1473e-05,0,0,0.065562,-0.025924,0,-0.00047566,0,0,0,0.036651,0.0014625,0.011434,-0.14854,0.016516,0.031413,1.0679e-06,0.69,0.74,0
0.030707,-0.007427,0.036495,0.0010967,0.011277,-0.00013923,0,0,0.065565,-0.02647,0,-0.000724,0,0,0,0.036495,0.0010958,0.011277,-0.2253,0.01629,0.031566,1.0668e-06,0.7,0.74,0
0.031363,-0.0074551,0.036346,0.00078167,0.011138,-0.00015812,0,0,0.06554,-0.026927,0,-0.00082224,0,0,0,0.036347,0.00078067,0.011138,-0.25485,0.016089,0.031684,1.0644e-06,0.71,0.74,0
0.032018,-0.0074844,0.036203,0.00050966,0.011014,-0.00015669,0,0,0.065492,-0.027311,0,-0.00081478,0,0,0,0.036204,0.00050869,0.011014,-0.2517,0.015909,0.031773,1.0608e-06,0.72,0.74,0
0.032673,-0.0075141,0.036066,0.00027412,0.010902,-0.0001415,0,0,0.065426,-0.027632,0,-0.0007358,0,0,0,0.036067,0.0002733,0.010902,-0.22671,0.015747,0.031839,1.0563e-06,0.73,0.74,0
0.033326,-0.0075435,0.035933,6.9791e-05,0.010801,-0.00011752,0,0,0.065344,-0.027901,0,-0.00061112,0,0,0,0.035934,6.9161e-05,0.010801,-0.18794,0.015601,0.031884,1.0511e-06,0.74,0.74,0
0.033979,-0.0075722,0.035806,-0.0001077,0.01071,-8.8453e-05,0,0,0.065252,-0.028125,0,-0.00045996,0,0,0,0.035807,-0.00010815,0.01071,-0.14127,0.015469,0.031912,1.0455e-06,0.75,0.74,0
0.034631,-0.0075999,0.035685,-0.000262,0.010627,-5.7006e-05,0,0,0.06515,-0.028311,0,-0.00029643,0,0,0,0.035685,-0.0002623,0.010627,-0.090981,0.01535,0.031927,1.0396e-06,0.76,0.74,0
0.035282,-0.0076263,0.035568,-0.00039619,0.010552,-2.5144e-05,0,0,0.065043,-0.028464,0,-0.00013075,0,0,0,0.035569,-0.0003964,0.010552,-0.040139,0.015241,0.031931,1.0336e-06,0.77,0.74,0
0.035932,-0.0076512,0.035457,-0.00051288,0.010483,5.7307e-06,0,0,0.064933,-0.02859,0,2.98e-05,0,0,0,0.035458,-0.00051306,0.010483,0.0090821,0.015143,0.031926,1.0275e-06,0.78,0.74,0
0.036581,-0.0076746,0.035352,-0.00061433,0.010421,3.4639e-05,0,0,0.06482,-0.028693,0,0.00018012,0,0,0,0.035352,-0.00061452,0.010421,0.055166,0.015053,0.031914,1.0214e-06,0.79,0.74,0
0.037229,-0.0076964,0.035252,-0.00070246,0.010365,6.0916e-05,0,0,0.064707,-0.028775,0,0.00031676,0,0,0,0.035253,-0.0007027,0.010365,0.097084,0.014972,0.031896,1.0154e-06,0.8,0.74,0
0.037875,-0.0077166,0.035158,-0.00077892,0.010314,8.4133e-05,0,0,0.064595,-0.028841,0,0.00043749,0,0,0,0.035158,-0.00077924,0.010314,0.13417,0.014898,0.031873,1.0095e-06,0.81,0.74,0
0.038521,-0.0077353,0.035069,-0.00084516,0.010267,0.00010404,0,0,0.064485,-0.028892,0,0.00054099,0,0,0,0.035069,-0.00084557,0.010267,0.16602,0.01483,0.031848,1.0038e-06,0.82,0.74,0
0.039165,-0.0077524,0.034986,-0.00090245,0.010225,0.0001205,0,0,0.064378,-0.028931,0,0.00062662,0,0,0,0.034986,-0.00090295,0.010225,0.19245,0.014769,0.03182,9.9835e-07,0.83,0.74,0
0.039808,-0.007768,0.034907,-0.00095188,0.010187,0.00013351,0,0,0.064274,-0.02896,0,0.00069425,0,0,0,0.034908,-0.00095246,0.010187,0.21339,0.014714,0.03179,9.9313e-07,0.84,0.74,0
0.04045,-0.0077821,0.034835,-0.00099443,0.010152,0.0001431,0,0,0.064175,-0.028981,0,0.00074413,0,0,0,0.034835,-0.00099507,0.010152,0.22892,0.014664,0.031759,9.8817e-07,0.85,0.74,0
0.041092,-0.0077949,0.034767,-0.0010309,0.010121,0.00014938,0,0,0.06408,-0.028994,0,0.00077679,0,0,0,0.034767,-0.0010316,0.010121,0.23917,0.014619,0.031729,9.8348e-07,0.86,0.74,0
0.041732,-0.0078065,0.034704,-0.0010622,0.010093,0.0001525,0,0,0.06399,-0.029002,0,0.00079298,0,0,0,0.034705,-0.0010629,0.010093,0.24437,0.014578,0.031698,9.7909e-07,0.87,0.74,0
0.042371,-0.0078168,0.034647,-0.0010888,0.010067,0.00015261,0,0,0.063906,-0.029006,0,0.00079357,0,0,0,0.034647,-0.0010895,0.010067,0.24476,0.014542,0.031668,9.7499e-07,0.88,0.74,0
0.04301,-0.0078259,0.034594,-0.0011114,0.010045,0.00014992,0,0,0.063828,-0.029006,0,0.00077959,0,0,0,0.034594,-0.001112,0.010045,0.24065,0.014509,0.03164,9.712e-07,0.89,0.74,0
0.043648,-0.007834,0.034546,-0.0011304,0.010025,0.00014464,0,0,0.063755,-0.029003,0,0.00075213,0,0,0,0.034547,-0.0011311,0.010025,0.23236,0.01448,0.031612,9.6773e-07,0.9,0.74,0
0.044285,-0.0078411,0.034503,-0.0011464,0.010007,0.00013699,0,0,0.063689,-0.028999,0,0.00071233,0,0,0,0.034503,-0.001147,0.010007,0.22023,0.014454,0.031587,9.6458e-07,0.91,0.74,0
0.044922,-0.0078473,0.034464,-0.0011598,0.0099914,0.00012719,0,0,0.06363,-0.028993,0,0.00066137,0,0,0,0.034465,-0.0011602,0.0099914,0.20462,0.014432,0.031563,9.6175e-07,0.92,0.74,0
0.045558,-0.0078526,0.034431,-0.0011708,0.009978,0.00011548,0,0,0.063577,-0.028987,0,0.00060048,0,0,0,0.034431,-0.0011712,0.009978,0.1859,0.014413,0.031542,9.5925e-07,0.93,0.74,0
0.046193,-0.0078571,0.034402,-0.0011798,0.0099666,0.00010209,0,0,0.063531,-0.02898,0,0.00053088,0,0,0,0.034402,-0.0011801,0.0099666,0.16444,0.014396,0.031523,9.5708e-07,0.94,0.74,0
0.046828,-0.0078608,0.034377,-0.0011869,0.0099571,8.7271e-05,0,0,0.063492,-0.028974,0,0.00045381,0,0,0,0.034377,-0.0011872,0.0099571,0.14064,0.014382,0.031507,9.5523e-07,0.95,0.74,0
0.047463,-0.0078638,0.034357,-0.0011925,0.0099494,7.1253e-05,0,0,0.06346,-0.028969,0,0.00037051,0,0,0,0.034357,-0.0011927,0.0099494,0.11487,0.014371,0.031494,9.5373e-07,0.96,0.74,0
0.048098,-0.0078661,0.034342,-0.0011967,0.0099435,5.4277e-05,0,0,0.063435,-0.028964,0,0.00028224,0,0,0,0.034342,-0.0011968,0.0099435,0.087532,0.014363,0.031483,9.5255e-07,0.97,0.74,0
0.048732,-0.0078677,0.034331,-0.0011996,0.0099393,3.6583e-05,0,0,0.063417,-0.028961,0,0.00019023,0,0,0,0.034331,-0.0011997,0.0099393,0.059011,0.014357,0.031475,9.5171e-07,0.98,0.74,0
0.049366,-0.0078686,0.034324,-0.0012013,0.0099368,1.6888e-05,0,0,0.063406,-0.028959,0,8.7816e-05,0,0,0,0.034324,-0.0012014,0.0099368,0.027245,0.014353,0.031471,9.5121e-07,0.99,0.74,0
0.049683,-0.0078689,0.034322,-0.0012019,0.0099359,6.1886e-06,0,0,0.063403,-0.028958,0,3.2181e-05,0,0,0,0.034322,-0.0012019,0.0099359,0.0099862,0.014352,0.031469,9.5104e-07,1,0.74,0
0.00022601,-9.1761e-05,0.030401,0.01276,0.012948,-0.0035227,0,0,0.045378,-0.00049029,0,-0.018318,0,0,0,0.03108,0.012081,0.012948,-10.885,0.018703,0.018581,3.2701e-07,0,0.75,0
0.00045378,-0.00018335,0.030437,0.012503,0.012882,-0.0035102,0,0,0.045643,-0.00098525,0,-0.018253,0,0,0,0.031101,0.011839,0.012882,-10.692,0.018607,0.018763,3.3572e-07,0.01,0.75,0
0.00091286,-0.00036597,0.030568,0.012011,0.012773,-0.0034731,0,0,0.046265,-0.0019837,0,-0.01806,0,0,0,0.031198,0.01138,0.012773,-10.265,0.018451,0.01916,3.5487e-07,0.02,0.75,0
0.0013791,-0.000547,0.030758,0.011535,0.012688,-0.0034114,0,0,0.046982,-0.0029976,0,-0.017739,0,0,0,0.031347,0.010946,0.012688,-9.7753,0.018327,0.019589,3.7583e-07,0.03,0.75,0
0.0018525,-0.00072555,0.030948,0.011053,0.0126,-0.0033256,0,0,0.047703,-0.004023,0,-0.017293,0,0,0,0.03149,0.01051,0.0126,-9.2476,0.0182,0.020018,3.9694e-07,0.04,0.75,0
0.0023331,-0.00090082,0.031137,0.010567,0.012511,-0.0032169,0,0,0.048427,-0.0050555,0,-0.016728,0,0,0,0.03163,0.010074,0.012511,-8.6889,0.018071,0.020448,4.1817e-07,0.05,0.75,0
0.002821,-0.001072,0.031324,0.010078,0.012421,-0.0030864,0,0,0.049149,-0.0060904,0,-0.016049,0,0,0,0.031765,0.0096373,0.012421,-8.1052,0.017941,0.020877,4.3948e-07,0.06,0.75,0
0.0033161,-0.0012385,0.031509,0.0095901,0.01233,-0.0029352,0,0,0.049866,-0.007123,0,-0.015263,0,0,0,0.031897,0.009202,0.01233,-7.5017,0.01781,0.021305,4.6082e-07,0.07,0.75,0
0.0038184,-0.0013996,0.03169,0.0091043,0.012238,-0.0027649,0,0,0.050575,-0.0081485,0,-0.014377,0,0,0,0.032026,0.008769,0.012238,-6.8834,0.017678,0.021731,4.8216e-07,0.08,0.75,0
0.0043276,-0.0015548,0.031868,0.0086233,0.012147,-0.0025768,0,0,0.051273,-0.0091624,0,-0.013399,0,0,0,0.032152,0.0083392,0.012147,-6.2551,0.017546,0.022156,5.0347e-07,0.09,0.75,0
0.0048438,-0.0017035,0.032041,0.0081491,0.012057,-0.0023728,0,0,0.051958,-0.01016,0,-0.012338,0,0,0,0.032276,0.0079138,0.012057,-5.6216,0.017416,0.022578,5.2473e-07,0.1,0.75,0
0.0053668,-0.0018455,0.032209,0.0076839,0.011968,-0.0021549,0,0,0.052628,-0.011139,0,-0.011206,0,0,0,0.032399,0.0074941,0.011968,-4.9876,0.017287,0.022998,5.4591e-07,0.11,0.75,0
0.0058964,-0.0019805,0.032374,0.0072298,0.011881,-0.0019256,0,0,0.053281,-0.012093,0,-0.010013,0,0,0,0.032522,0.0070814,0.011881,-4.3579,0.017161,0.023413,5.6701e-07,0.12,0.75,0
0.0064324,-0.0021084,0.032533,0.0067893,0.011797,-0.0016874,0,0,0.053915,-0.01302,0,-0.0087744,0,0,0,0.032645,0.0066773,0.011797,-3.7377,0.01704,0.023825,5.88e-07,0.13,0.75,0
0.0069747,-0.0022291,0.03269,0.0063648,0.011716,-0.0014434,0,0,0.05453,-0.013914,0,-0.0075056,0,0,0,0.03277,0.0062841,0.011716,-3.1322,0.016924,0.024232,6.0887e-07,0.14,0.75,0
0.007523,-0.0023429,0.032842,0.0059592,0.01164,-0.0011969,0,0,0.055125,-0.014771,0,-0.0062237,0,0,0,0.032897,0.0059044,0.01164,-2.5469,0.016814,0.024631,6.2954e-07,0.15,0.75,0
0.0080772,-0.0024501,0.032992,0.005576,0.01157,-0.00095158,0,0,0.055696,-0.015585,0,-0.0049482,0,0,0,0.033026,0.0055415,0.01157,-1.9877,0.016713,0.025022,6.4996e-07,0.16,0.75,0
0.0086369,-0.0025513,0.033139,0.0052195,0.011508,-0.00071178,0,0,0.056242,-0.016349,0,-0.0037013,0,0,0,0.033158,0.0051999,0.011508,-1.4611,0.016622,0.0254,6.6998e-07,0.17,0.75,0
0.009202,-0.0026473,0.033284,0.0048946,0.011454,-0.00048233,0,0,0.056759,-0.017053,0,-0.0025081,0,0,0,0.033293,0.0048851,0.011454,-0.97406,0.016544,0.02576,6.8944e-07,0.18,0.75,0
0.0097721,-0.002739,0.033427,0.0046076,0.01141,-0.00026898,0,0,0.057244,-0.017687,0,-0.0013987,0,0,0,0.033431,0.004604,0.01141,-0.53501,0.016482,0.026098,7.081e-07,0.19,0.75,0
0.010347,-0.0028278,0.033569,0.0043662,0.011381,-7.8639e-05,0,0,0.057691,-0.018238,0,-0.00040892,0,0,0,0.03357,0.0043651,0.011381,-0.15394,0.016439,0.026406,7.2564e-07,0.2,0.75,0
0.010926,-0.0029152,0.033711,0.0041798,0.011367,8.0237e-05,0,0,0.058093,-0.018687,0,0.00041723,0,0,0,0.033712,0.0041789,0.011367,0.15665,0.016419,0.026675,7.4167e-07,0.21,0.75,0
0.011509,-0.0030033,0.033852,0.0040599,0.011374,0.0001972,0,0,0.058444,-0.019015,0,0.0010254,0,0,0,0.033854,0.0040581,0.011374,0.3807,0.016428,0.026895,7.5571e-07,0.22,0.75,0
0.012095,-0.0030942,0.033994,0.0040214,0.011405,0.00025933,0,0,0.058732,-0.019196,0,0.0013485,0,0,0,0.033996,0.0040188,0.011405,0.49738,0.016473,0.027052,7.6718e-07,0.23,0.75,0
0.012683,-0.0031909,0.034137,0.0040844,0.011466,0.00025093,0,0,0.058944,-0.019193,0,0.0013048,0,0,0,0.03414,0.0040819,0.011466,0.4797,0.016563,0.02713,7.7528e-07,0.24,0.75,0
0.013274,-0.0032963,0.034274,0.004279,0.011566,0.00015438,0,0,0.05904,-0.018946,0,0.00080277,0,0,0,0.034275,0.0042775,0.011566,0.29475,0.016706,0.027099,7.7827e-07,0.25,0.75,0
0.013864,-0.0034139,0.034361,0.0046627,0.011707,-3.1295e-05,0,0,0.058899,-0.018315,0,-0.00016273,0,0,0,0.034362,0.0046615,0.011707,-0.063888,0.01691,0.02688,7.7111e-07,0.26,0.75,0
0.014452,-0.0035447,0.034344,0.0043868,0.011619,-0.00018282,0,0,0.055165,-0.016957,0,-0.00098375,0,0,0,0.034347,0.0043838,0.011619,-0.3678,0.016783,0.027099,7.7513e-07,0.27,0.75,0
0.014968,-0.0036781,0.034291,0.0023755,0.011,-0.00012189,0,0,0.044841,-0.01522,0,-0.00078178,0,0,0,0.034295,0.0023713,0.011,-0.26691,0.015889,0.028644,8.3252e-07,0.28,0.75,0
0.015348,-0.0037966,0.034274,-0.00010362,0.010251,0.00012515,0,0,0.034856,-0.014385,0,0.00018124,0,0,0,0.034277,-0.00010733,0.010251,0.17897,0.014807,0.030572,9.1155e-07,0.29,0.75,0
0.015665,-0.0038995,0.034249,-0.0013061,0.009883,0.00032974,0,0,0.031676,-0.014546,0,0.00085732,0,0,0,0.034253,-0.00131,0.009883,0.53007,0.014275,0.031496,9.4821e-07,0.3,0.75,0
0.015982,-0.0039986,0.034202,-0.0015343,0.0098003,0.00034908,0,0,0.031722,-0.014735,0,0.0009076,0,0,0,0.034206,-0.001538,0.0098003,0.55976,0.014156,0.031637,9.5033e-07,0.31,0.75,0
0.016299,-0.0041003,0.034133,-0.0015455,0.0097763,0.00027258,0,0,0.031664,-0.014718,0,0.0007087,0,0,0,0.034136,-0.0015478,0.0097763,0.4374,0.014121,0.031582,9.4482e-07,0.32,0.75,0
0.016615,-0.0042056,0.03407,-0.0015118,0.0097674,0.00019794,0,0,0.031593,-0.014663,0,0.00051464,0,0,0,0.034071,-0.001513,0.0097674,0.31848,0.014108,0.031497,9.3865e-07,0.33,0.75,0
0.016931,-0.0043145,0.034045,-0.0014376,0.0097822,0.00012902,0,0,0.031542,-0.014586,0,0.00033544,0,0,0,0.034046,-0.0014381,0.0097822,0.20817,0.01413,0.031414,9.3467e-07,0.34,0.75,0
0.017246,-0.0044266,0.034049,-0.0013257,0.009817,6.7806e-05,0,0,0.031502,-0.014486,0,0.0001763,0,0,0,0.034049,-0.0013259,0.009817,0.10973,0.01418,0.031327,9.3207e-07,0.35,0.75,0
0.017561,-0.0045418,0.034072,-0.0011891,0.0098649,1.8209e-05,0,0,0.031469,-0.01437,0,4.7344e-05,0,0,0,0.034072,-0.0011892,0.0098649,0.029575,0.014249,0.031237,9.3035e-07,0.36,0.75,0
0.017875,-0.0046596,0.03411,-0.0010403,0.0099211,-1.9988e-05,0,0,0.031446,-0.01425,0,-5.1968e-05,0,0,0,0.034111,-0.0010404,0.0099211,-0.032526,0.01433,0.031152,9.2953e-07,0.37,0.75,0
0.01819,-0.0047796,0.034163,-0.00088786,0.0099826,-5.0313e-05,0,0,0.031435,-0.014132,0,-0.00013081,0,0,0,0.034163,-0.000888,0.0099826,-0.082158,0.014419,0.031076,9.2972e-07,0.38,0.75,0
0.018504,-0.0049013,0.034228,-0.0007359,0.010048,-7.6963e-05,0,0,0.031434,-0.014019,0,-0.0002001,0,0,0,0.034228,-0.00073615,0.010048,-0.12605,0.014513,0.031012,9.3085e-07,0.39,0.75,0
0.018819,-0.0050246,0.034301,-0.00058558,0.010115,-0.000103,0,0,0.031443,-0.01391,0,-0.00026779,0,0,0,0.034302,-0.00058599,0.010115,-0.16912,0.01461,0.030957,9.3271e-07,0.4,0.75,0
0.019133,-0.005149,0.034381,-0.00043667,0.010183,-0.00012965,0,0,0.031457,-0.013806,0,-0.0003371,0,0,0,0.034381,-0.00043726,0.010183,-0.21338,0.014709,0.030908,9.35e-07,0.41,0.75,0
0.019448,-0.0052743,0.034462,-0.00028874,0.010252,-0.00015643,0,0,0.031473,-0.013703,0,-0.00040672,0,0,0,0.034463,-0.00028955,0.010252,-0.25798,0.014808,0.030863,9.3749e-07,0.42,0.75,0
0.019763,-0.0054003,0.034544,-0.00014207,0.010321,-0.00018159,0,0,0.03149,-0.013601,0,-0.00047214,0,0,0,0.034545,-0.00014313,0.010321,-0.30006,0.014908,0.030819,9.3998e-07,0.43,0.75,0
0.020077,-0.0055266,0.034625,1.9898e-06,0.010388,-0.0002028,0,0,0.031508,-0.013502,0,-0.00052729,0,0,0,0.034626,7.0227e-07,0.010388,-0.33573,0.015005,0.030776,9.4242e-07,0.44,0.75,0
0.020393,-0.0056529,0.034704,0.00014105,0.010454,-0.00021773,0,0,0.031526,-0.013406,0,-0.0005661,0,0,0,0.034706,0.00013958,0.010454,-0.36106,0.0151,0.030736,9.4486e-07,0.45,0.75,0
0.020708,-0.005779,0.034783,0.00027192,0.010517,-0.0002245,0,0,0.031547,-0.013318,0,-0.00058369,0,0,0,0.034785,0.00027036,0.010517,-0.37284,0.015191,0.030702,9.4744e-07,0.46,0.75,0
0.021024,-0.0059044,0.034862,0.00039104,0.010576,-0.00022194,0,0,0.031572,-0.01324,0,-0.00057704,0,0,0,0.034864,0.00038952,0.010576,-0.36902,0.015276,0.030677,9.5035e-07,0.47,0.75,0
0.021339,-0.0060288,0.034943,0.00049492,0.010631,-0.00020967,0,0,0.031605,-0.013177,0,-0.00054515,0,0,0,0.034944,0.00049354,0.010631,-0.34888,0.015356,0.030666,9.5381e-07,0.48,0.75,0
0.021656,-0.0061519,0.035026,0.00058042,0.010682,-0.00018802,0,0,0.031648,-0.013132,0,-0.00048886,0,0,0,0.035028,0.00057928,0.010682,-0.31292,0.01543,0.030671,9.5805e-07,0.49,0.75,0
0.021972,-0.0062733,0.035114,0.00064497,0.010728,-0.00015789,0,0,0.031702,-0.013107,0,-0.00041051,0,0,0,0.035115,0.00064411,0.010728,-0.26267,0.015495,0.030697,9.6324e-07,0.5,0.75,0
0.02229,-0.0063928,0.035206,0.00068657,0.010768,-0.00012061,0,0,0.031769,-0.013105,0,-0.00031358,0,0,0,0.035206,0.00068599,0.010768,-0.20048,0.015553,0.030745,9.6955e-07,0.51,0.75,0
0.022608,-0.0065102,0.035303,0.00070382,0.010802,-7.7875e-05,0,0,0.031851,-0.013128,0,-0.00020247,0,0,0,0.035303,0.00070347,0.010802,-0.12932,0.015603,0.030818,9.771e-07,0.52,0.75,0
0.022927,-0.0066251,0.035406,0.00069586,0.01083,-3.169e-05,0,0,0.031948,-0.013175,0,-8.2395e-05,0,0,0,0.035406,0.00069564,0.01083,-0.05276,0.015644,0.030915,9.8599e-07,0.53,0.75,0
0.023247,-0.0067375,0.035515,0.00066248,0.010853,1.5756e-05,0,0,0.03206,-0.013248,0,4.0965e-05,0,0,0,0.035515,0.00066226,0.010853,0.025362,0.015677,0.031038,9.9624e-07,0.54,0.75,0
0.023568,-0.0068471,0.035629,0.00060435,0.01087,6.2502e-05,0,0,0.032187,-0.013345,0,0.00016251,0,0,0,0.035629,0.00060401,0.01087,0.10161,0.015701,0.031186,1.0079e-06,0.55,0.75,0
0.023891,-0.0069539,0.03575,0.00052328,0.010882,0.00010779,0,0,0.032329,-0.013466,0,0.00028026,0,0,0,0.035751,0.00052271,0.010882,0.17458,0.015718,0.031359,1.0209e-06,0.56,0.75,0
0.024215,-0.0070576,0.035883,0.00042125,0.010891,0.00015327,0,0,0.032489,-0.013611,0,0.00039851,0,0,0,0.035884,0.0004203,0.010891,0.24676,0.015732,0.031559,1.0357e-06,0.57,0.75,0
0.02454,-0.0071581,0.036041,0.00029659,0.010901,0.00020166,0,0,0.032681,-0.013786,0,0.00052432,0,0,0,0.036042,0.00029506,0.010901,0.32207,0.015746,0.0318,1.0536e-06,0.58,0.75,0
0.024868,-0.0072551,0.036237,0.0001354,0.010912,0.00024849,0,0,0.032922,-0.014009,0,0.00064608,0,0,0,0.036239,0.00013306,0.010912,0.39255,0.015761,0.032104,1.0764e-06,0.59,0.75,0
0.025199,-0.0073484,0.036433,-6.914e-05,0.010909,0.00028786,0,0,0.033181,-0.014272,0,0.00074844,0,0,0,0.036436,-7.2197e-05,0.010909,0.44892,0.015758,0.032443,1.101e-06,0.6,0.75,0
0.025532,-0.0074369,0.03661,-0.00013503,0.010943,0.00041433,0,0,0.033368,-0.014401,0,0.0010773,0,0,0,0.036617,-0.00014169,0.010943,0.64263,0.015806,0.032659,1.1198e-06,0.61,0.75,0
0.025866,-0.0075141,0.036752,0.000673,0.011227,0.00070021,0,0,0.0371,-0.014708,0,0.0022806,0,0,0,0.036771,0.00065348,0.011227,1.1441,0.016217,0.032181,1.1007e-06,0.62,0.75,0
0.026274,-0.0075619,0.03687,0.0027106,0.011874,0.00097481,0,0,0.048256,-0.016314,0,0.0041771,0,0,0,0.036904,0.002676,0.011874,1.6944,0.017151,0.030721,1.0335e-06,0.63,0.75,0
0.026831,-0.0075753,0.037028,0.004317,0.012403,0.0010105,0,0,0.05984,-0.019051,0,0.0050431,0,0,0,0.037063,0.0042824,0.012403,1.7952,0.017916,0.029587,9.9231e-07,0.64,0.75,0
0.027471,-0.0075781,0.037121,0.0041477,0.012381,0.00079279,0,0,0.064325,-0.021406,0,0.0041225,0,0,0,0.037142,0.0041267,0.012381,1.3861,0.017883,0.029761,1.0109e-06,0.65,0.75,0
0.028118,-0.0075885,0.037066,0.0032631,0.012099,0.00050969,0,0,0.064916,-0.022973,0,0.0026504,0,0,0,0.037076,0.0032541,0.012099,0.86935,0.017476,0.030381,1.0392e-06,0.66,0.75,0
0.028769,-0.007607,0.036944,0.0025672,0.011853,0.00029456,0,0,0.065235,-0.024144,0,0.0015317,0,0,0,0.036947,0.0025639,0.011853,0.49395,0.017121,0.030808,1.0541e-06,0.67,0.75,0
0.029422,-0.0076315,0.036804,0.0019982,0.011641,0.00014979,0,0,0.065425,-0.025071,0,0.0007789,0,0,0,0.036805,0.0019971,0.011641,0.24815,0.016814,0.031128,1.0624e-06,0.68,0.75,0
0.030077,-0.0076603,0.03666,0.0015245,0.011455,5.9327e-05,0,0,0.065533,-0.025821,0,0.0003085,0,0,0,0.036661,0.001524,0.011455,0.097504,0.016547,0.031373,1.0666e-06,0.69,0.75,0
0.030733,-0.0076917,0.036515,0.0011257,0.011292,8.9183e-06,0,0,0.065578,-0.026433,0,4.6375e-05,0,0,0,0.036515,0.0011254,0.011292,0.014752,0.016311,0.031559,1.0675e-06,0.7,0.75,0
0.031389,-0.0077245,0.036368,0.00078786,0.011147,-1.2851e-05,0,0,0.065576,-0.026933,0,-6.6826e-05,0,0,0,0.036369,0.00078755,0.011147,-0.020613,0.016101,0.031698,1.0661e-06,0.71,0.75,0
0.032045,-0.0077578,0.036223,0.00050031,0.011017,-1.4805e-05,0,0,0.065536,-0.027344,0,-7.6989e-05,0,0,0,0.036224,0.00050001,0.011017,-0.023773,0.015914,0.031797,1.0628e-06,0.72,0.75,0
0.0327,-0.0077907,0.03608,0.00025471,0.010901,-3.6007e-06,0,0,0.065468,-0.027679,0,-1.8724e-05,0,0,0,0.036081,0.00025443,0.010901,-0.0058227,0.015745,0.031866,1.0581e-06,0.73,0.75,0
0.033354,-0.0078229,0.035941,4.4362e-05,0.010796,1.5835e-05,0,0,0.065378,-0.027953,0,8.2344e-05,0,0,0,0.035941,4.4085e-05,0.010796,0.025212,0.015594,0.03191,1.0526e-06,0.74,0.75,0
0.034007,-0.0078538,0.035806,-0.00013618,0.010701,3.9905e-05,0,0,0.065273,-0.028177,0,0.0002075,0,0,0,0.035806,-0.00013648,0.010701,0.063568,0.015457,0.031934,1.0464e-06,0.75,0.75,0
0.034659,-0.0078833,0.035676,-0.0002914,0.010615,6.6008e-05,0,0,0.065158,-0.028358,0,0.00034324,0,0,0,0.035676,-0.00029175,0.010615,0.10513,0.015333,0.031943,1.0398e-06,0.76,0.75,0
0.03531,-0.0079112,0.035552,-0.00042497,0.010538,9.2289e-05,0,0,0.065035,-0.028504,0,0.0004799,0,0,0,0.035552,-0.00042542,0.010538,0.14699,0.015222,0.03194,1.033e-06,0.77,0.75,0
0.03596,-0.0079374,0.035433,-0.00053998,0.010468,0.00011744,0,0,0.064909,-0.02862,0,0.00061069,0,0,0,0.035434,-0.00054055,0.010468,0.18709,0.01512,0.031927,1.0262e-06,0.78,0.75,0
0.036609,-0.0079617,0.03532,-0.000639,0.010404,0.00014056,0,0,0.064781,-0.028713,0,0.00073089,0,0,0,0.035321,-0.00063972,0.010404,0.22401,0.015029,0.031906,1.0194e-06,0.79,0.75,0
0.037256,-0.0079843,0.035214,-0.00072421,0.010347,0.00016103,0,0,0.064654,-0.028785,0,0.00083735,0,0,0,0.035215,-0.00072508,0.010347,0.2568,0.014945,0.03188,1.0128e-06,0.8,0.75,0
0.037902,-0.0080051,0.035113,-0.00079746,0.010295,0.00017847,0,0,0.064528,-0.02884,0,0.00092806,0,0,0,0.035114,-0.00079848,0.010295,0.28484,0.01487,0.03185,1.0063e-06,0.81,0.75,0
0.038546,-0.0080242,0.035019,-0.00086033,0.010248,0.00019266,0,0,0.064406,-0.028881,0,0.0010018,0,0,0,0.03502,-0.00086149,0.010248,0.30775,0.014802,0.031816,1.0001e-06,0.82,0.75,0
0.03919,-0.0080416,0.03493,-0.0009142,0.010205,0.0002035,0,0,0.064287,-0.02891,0,0.0010582,0,0,0,0.034932,-0.00091546,0.010205,0.32537,0.01474,0.031781,9.941e-07,0.83,0.75,0
0.039832,-0.0080575,0.034848,-0.00096023,0.010166,0.00021096,0,0,0.064172,-0.028929,0,0.001097,0,0,0,0.034849,-0.00096156,0.010166,0.33765,0.014685,0.031745,9.8842e-07,0.84,0.75,0
0.040473,-0.0080718,0.034771,-0.00099946,0.010131,0.00021511,0,0,0.064063,-0.028941,0,0.0011186,0,0,0,0.034772,-0.0010008,0.010131,0.34465,0.014634,0.031708,9.8305e-07,0.85,0.75,0
0.041113,-0.0080847,0.0347,-0.0010328,0.0101,0.00021605,0,0,0.063959,-0.028946,0,0.0011235,0,0,0,0.034701,-0.0010342,0.0101,0.34652,0.014589,0.031672,9.78e-07,0.86,0.75,0
0.041752,-0.0080962,0.034634,-0.001061,0.010072,0.00021392,0,0,0.063862,-0.028946,0,0.0011124,0,0,0,0.034636,-0.0010623,0.010072,0.34347,0.014548,0.031636,9.7328e-07,0.87,0.75,0
0.042391,-0.0081066,0.034574,-0.0010848,0.010047,0.00020889,0,0,0.063771,-0.028942,0,0.0010862,0,0,0,0.034575,-0.001086,0.010047,0.33574,0.014512,0.031602,9.689e-07,0.88,0.75,0
0.043028,-0.0081157,0.034519,-0.0011047,0.010024,0.00020116,0,0,0.063686,-0.028935,0,0.001046,0,0,0,0.03452,-0.0011059,0.010024,0.32362,0.01448,0.031569,9.6486e-07,0.89,0.75,0
0.043664,-0.0081237,0.034469,-0.0011213,0.010004,0.00019092,0,0,0.063608,-0.028927,0,0.00099279,0,0,0,0.03447,-0.0011224,0.010004,0.30744,0.014451,0.031537,9.6117e-07,0.9,0.75,0
0.0443,-0.0081308,0.034424,-0.0011351,0.0099868,0.00017839,0,0,0.063538,-0.028917,0,0.00092764,0,0,0,0.034425,-0.001136,0.0099868,0.28751,0.014425,0.031508,9.5782e-07,0.91,0.75,0
0.044935,-0.0081369,0.034385,-0.0011465,0.0099714,0.00016379,0,0,0.063474,-0.028907,0,0.00085173,0,0,0,0.034385,-0.0011473,0.0099714,0.2642,0.014403,0.031482,9.5483e-07,0.92,0.75,0
0.045569,-0.0081421,0.03435,-0.0011557,0.0099582,0.00014735,0,0,0.063418,-0.028896,0,0.00076624,0,0,0,0.03435,-0.0011564,0.0099582,0.23785,0.014384,0.031458,9.5218e-07,0.93,0.75,0
0.046203,-0.0081465,0.03432,-0.0011632,0.0099469,0.0001293,0,0,0.063369,-0.028886,0,0.00067236,0,0,0,0.03432,-0.0011637,0.0099469,0.20884,0.014368,0.031437,9.4989e-07,0.94,0.75,0
0.046837,-0.0081501,0.034294,-0.0011691,0.0099375,0.00010986,0,0,0.063327,-0.028877,0,0.00057129,0,0,0,0.034295,-0.0011694,0.0099375,0.17755,0.014354,0.031419,9.4796e-07,0.95,0.75,0
0.04747,-0.008153,0.034274,-0.0011736,0.00993,8.9273e-05,0,0,0.063293,-0.028869,0,0.00046422,0,0,0,0.034274,-0.0011739,0.00993,0.14434,0.014343,0.031404,9.4637e-07,0.96,0.75,0
0.048103,-0.0081552,0.034258,-0.001177,0.0099242,6.7761e-05,0,0,0.063267,-0.028863,0,0.00035236,0,0,0,0.034258,-0.0011771,0.0099242,0.10959,0.014335,0.031393,9.4514e-07,0.97,0.75,0
0.048735,-0.0081568,0.034246,-0.0011793,0.00992,4.5557e-05,0,0,0.063248,-0.028858,0,0.0002369,0,0,0,0.034246,-0.0011794,0.00992,0.073703,0.014329,0.031384,9.4426e-07,0.98,0.75,0
0.049368,-0.0081577,0.034239,-0.0011807,0.0099176,2.1411e-05,0,0,0.063236,-0.028855,0,0.00011134,0,0,0,0.034239,-0.0011807,0.0099176,0.034645,0.014325,0.031379,9.4373e-07,0.99,0.75,0
0.049684,-0.008158,0.034237,-0.0011811,0.0099168,8.5102e-06,0,0,0.063233,-0.028855,0,4.4253e-05,0,0,0,0.034237,-0.0011811,0.0099168,0.013772,0.014324,0.031377,9.4355e-07,1,0.75,0
0.0002262,-9.6813e-05,0.030426,0.012754,0.012954,-0.0037171,0,0,0.045428,-0.00052034,0,-0.019329,0,0,0,0.031177,0.012003,0.012954,-11.407,0.018711,0.018718,3.3384e-07,0,0.76,0
0.00045428,-0.0001935,0.030464,0.012482,0.012884,-0.0037051,0,0,0.045709,-0.0010445,0,-0.019266,0,0,0,0.031199,0.011747,0.012884,-11.201,0.01861,0.01891,3.4306e-07,0.01,0.76,0
0.00091418,-0.00038639,0.030603,0.011962,0.012769,-0.0036689,0,0,0.046367,-0.0021002,0,-0.019078,0,0,0,0.031301,0.011264,0.012769,-10.748,0.018445,0.019329,3.6338e-07,0.02,0.76,0
0.0013816,-0.00057782,0.030805,0.011461,0.01268,-0.0036078,0,0,0.047125,-0.0031689,0,-0.018761,0,0,0,0.031457,0.010808,0.01268,-10.233,0.018315,0.019781,3.8561e-07,0.03,0.76,0
0.0018567,-0.00076689,0.031007,0.010955,0.012589,-0.0035218,0,0,0.047888,-0.0042472,0,-0.018314,0,0,0,0.031609,0.010353,0.012589,-9.6826,0.018183,0.020232,4.0796e-07,0.04,0.76,0
0.0023394,-0.00095273,0.031209,0.010446,0.012496,-0.003412,0,0,0.048652,-0.0053311,0,-0.017742,0,0,0,0.031757,0.0098978,0.012496,-9.1022,0.01805,0.020683,4.3042e-07,0.05,0.76,0
0.0028297,-0.0011345,0.031409,0.0099359,0.012403,-0.0032794,0,0,0.049414,-0.0064156,0,-0.017053,0,0,0,0.0319,0.0094444,0.012403,-8.4977,0.017916,0.021133,4.5294e-07,0.06,0.76,0
0.0033277,-0.0013116,0.031607,0.0094274,0.01231,-0.0031255,0,0,0.050172,-0.0074957,0,-0.016252,0,0,0,0.032041,0.0089935,0.01231,-7.8748,0.017782,0.021582,4.755e-07,0.07,0.76,0
0.0038331,-0.0014832,0.031802,0.0089228,0.012218,-0.0029516,0,0,0.050921,-0.0085664,0,-0.015348,0,0,0,0.032179,0.0085462,0.012218,-7.2385,0.017648,0.022029,4.9806e-07,0.08,0.76,0
0.0043461,-0.0016487,0.031995,0.0084247,0.012126,-0.0027595,0,0,0.051659,-0.0096228,0,-0.014349,0,0,0,0.032315,0.0081039,0.012126,-6.594,0.017515,0.022473,5.2058e-07,0.09,0.76,0
0.0048663,-0.0018076,0.032183,0.0079355,0.012036,-0.0025512,0,0,0.052383,-0.01066,0,-0.013266,0,0,0,0.03245,0.0076679,0.012036,-5.9463,0.017385,0.022914,5.4306e-07,0.1,0.76,0
0.0053937,-0.0019596,0.032367,0.0074575,0.011948,-0.0023291,0,0,0.053092,-0.011674,0,-0.012111,0,0,0,0.032585,0.0072396,0.011948,-5.3003,0.017258,0.023351,5.6546e-07,0.11,0.76,0
0.0059282,-0.0021043,0.032548,0.0069934,0.011863,-0.0020957,0,0,0.053783,-0.01266,0,-0.010898,0,0,0,0.032721,0.0068207,0.011863,-4.6611,0.017135,0.023784,5.8779e-07,0.12,0.76,0
0.0064694,-0.0022415,0.032726,0.0065456,0.011781,-0.0018538,0,0,0.054456,-0.013613,0,-0.0096396,0,0,0,0.032858,0.0064131,0.011781,-4.0337,0.017018,0.024212,6.1001e-07,0.13,0.76,0
0.0070173,-0.0023713,0.0329,0.0061171,0.011705,-0.0016064,0,0,0.055107,-0.014529,0,-0.0083535,0,0,0,0.032998,0.0060192,0.011705,-3.4233,0.016908,0.024634,6.321e-07,0.14,0.76,0
0.0075715,-0.0024938,0.033072,0.0057109,0.011635,-0.0013571,0,0,0.055737,-0.015402,0,-0.0070568,0,0,0,0.033141,0.005642,0.011635,-2.8351,0.016806,0.025047,6.5401e-07,0.15,0.76,0
0.008132,-0.0026092,0.033242,0.005331,0.011572,-0.0011094,0,0,0.056342,-0.016226,0,-0.0057686,0,0,0,0.033287,0.0052853,0.011572,-2.2746,0.016715,0.025449,6.7562e-07,0.16,0.76,0
0.0086984,-0.0027181,0.033409,0.004982,0.011517,-0.00086739,0,0,0.056919,-0.016992,0,-0.0045104,0,0,0,0.033437,0.0049541,0.011517,-1.7475,0.016636,0.025835,6.9678e-07,0.17,0.76,0
0.0092704,-0.0028211,0.033575,0.0046697,0.011473,-0.00063585,0,0,0.057463,-0.017689,0,-0.0033064,0,0,0,0.03359,0.0046544,0.011473,-1.2604,0.016573,0.026201,7.1726e-07,0.18,0.76,0
0.0098477,-0.0029191,0.033737,0.0044011,0.011441,-0.00042016,0,0,0.057969,-0.018305,0,-0.0021848,0,0,0,0.033744,0.0043939,0.011441,-0.8206,0.016527,0.026538,7.3671e-07,0.19,0.76,0
0.01043,-0.0030132,0.033895,0.0041851,0.011424,-0.00022682,0,0,0.058425,-0.018821,0,-0.0011795,0,0,0,0.033898,0.0041824,0.011424,-0.437,0.016501,0.026838,7.5465e-07,0.2,0.76,0
0.011016,-0.0031049,0.034047,0.0040326,0.011424,-6.3801e-05,0,0,0.05882,-0.019217,0,-0.00033176,0,0,0,0.034048,0.0040317,0.011424,-0.12089,0.016501,0.027088,7.7044e-07,0.21,0.76,0
0.011606,-0.0031958,0.034189,0.0039571,0.011444,5.9051e-05,0,0,0.059138,-0.019466,0,0.00030707,0,0,0,0.03419,0.0039565,0.011444,0.11313,0.01653,0.027272,7.832e-07,0.22,0.76,0
0.012199,-0.003288,0.034315,0.0039754,0.011487,0.00012987,0,0,0.059353,-0.019531,0,0.00067531,0,0,0,0.034316,0.0039745,0.011487,0.24641,0.016593,0.02737,7.9174e-07,0.23,0.76,0
0.012793,-0.0033838,0.034414,0.0041082,0.011557,0.00013592,0,0,0.05943,-0.019366,0,0.00070678,0,0,0,0.034415,0.0041074,0.011557,0.25747,0.016693,0.027355,7.9437e-07,0.24,0.76,0
0.013388,-0.0034857,0.034464,0.0043832,0.011654,7.0042e-05,0,0,0.059305,-0.018904,0,0.00036422,0,0,0,0.034464,0.0043828,0.011654,0.13248,0.016834,0.027185,7.8832e-07,0.25,0.76,0
0.013979,-0.0035954,0.034432,0.0048462,0.011784,-4.7957e-05,0,0,0.058886,-0.018037,0,-0.00024938,0,0,0,0.034433,0.0048457,0.011784,-0.095538,0.017021,0.026801,7.6975e-07,0.26,0.76,0
0.014565,-0.0037123,0.034338,0.0045145,0.011656,-0.00013434,0,0,0.055016,-0.016692,0,-0.00068849,0,0,0,0.034339,0.0045132,0.011656,-0.26643,0.016836,0.026993,7.7011e-07,0.27,0.76,0
0.01508,-0.0038301,0.034252,0.0022322,0.010945,-5.5107e-05,0,0,0.044787,-0.015302,0,-0.00040601,0,0,0,0.034254,0.0022306,0.010945,-0.13013,0.01581,0.028721,8.337e-07,0.28,0.76,0
0.015461,-0.0039411,0.034192,-0.00035881,0.01015,0.00018089,0,0,0.034861,-0.014599,0,0.00039751,0,0,0,0.034195,-0.00036118,0.01015,0.28013,0.014661,0.030702,9.1222e-07,0.29,0.76,0
0.015777,-0.0040448,0.034159,-0.0013657,0.0098379,0.00036605,0,0,0.031617,-0.014565,0,0.00095172,0,0,0,0.034163,-0.0013697,0.0098379,0.59008,0.01421,0.031463,9.4235e-07,0.3,0.76,0
0.016093,-0.0041456,0.03418,-0.0014701,0.009813,0.00038625,0,0,0.031677,-0.014668,0,0.0010042,0,0,0,0.034184,-0.0014744,0.009813,0.62075,0.014174,0.031567,9.4691e-07,0.31,0.76,0
0.01641,-0.0042475,0.034211,-0.0014816,0.0098189,0.00031021,0,0,0.03171,-0.014691,0,0.00080655,0,0,0,0.034214,-0.0014844,0.0098189,0.49787,0.014183,0.031601,9.496e-07,0.32,0.76,0
0.016728,-0.0043524,0.034214,-0.0014404,0.0098319,0.00021588,0,0,0.031696,-0.014654,0,0.0005613,0,0,0,0.034215,-0.0014419,0.0098319,0.34677,0.014202,0.031568,9.4857e-07,0.33,0.76,0
0.017044,-0.0044604,0.03421,-0.0013678,0.0098527,0.00012966,0,0,0.031664,-0.014587,0,0.00033712,0,0,0,0.034211,-0.0013683,0.0098527,0.20865,0.014232,0.031505,9.463e-07,0.34,0.76,0
0.017361,-0.0045716,0.034214,-0.0012665,0.0098842,5.551e-05,0,0,0.031629,-0.014496,0,0.00014433,0,0,0,0.034214,-0.0012666,0.0098842,0.089493,0.014277,0.031426,9.4392e-07,0.35,0.76,0
0.017677,-0.0046857,0.034227,-0.0011423,0.0099253,-6.2916e-06,0,0,0.031592,-0.014388,0,-1.6358e-05,0,0,0,0.034227,-0.0011423,0.0099253,-0.010307,0.014337,0.031337,9.4168e-07,0.36,0.76,0
0.017993,-0.0048023,0.034248,-0.0010033,0.0099735,-5.6939e-05,0,0,0.031557,-0.01427,0,-0.00014804,0,0,0,0.034248,-0.0010034,0.0099735,-0.09262,0.014406,0.031245,9.3974e-07,0.37,0.76,0
0.018308,-0.004921,0.034279,-0.00085647,0.010027,-9.8943e-05,0,0,0.031528,-0.014148,0,-0.00025725,0,0,0,0.034279,-0.00085678,0.010027,-0.16139,0.014483,0.031154,9.3828e-07,0.38,0.76,0
0.018623,-0.0050416,0.034318,-0.00070664,0.010083,-0.0001352,0,0,0.031505,-0.014027,0,-0.00035153,0,0,0,0.034318,-0.0007072,0.010083,-0.22121,0.014565,0.031069,9.3738e-07,0.39,0.76,0
0.018938,-0.0051637,0.034364,-0.00055654,0.010142,-0.00016803,0,0,0.031488,-0.013908,0,-0.00043688,0,0,0,0.034365,-0.0005574,0.010142,-0.27573,0.01465,0.03099,9.3703e-07,0.4,0.76,0
0.019253,-0.005287,0.034416,-0.00040762,0.010202,-0.00019864,0,0,0.031477,-0.013793,0,-0.00051645,0,0,0,0.034417,-0.00040881,0.010202,-0.32687,0.014737,0.030918,9.3712e-07,0.41,0.76,0
0.019568,-0.0054112,0.034472,-0.00026084,0.010263,-0.00022704,0,0,0.031471,-0.013681,0,-0.00059031,0,0,0,0.034473,-0.00026238,0.010263,-0.3746,0.014825,0.03085,9.3754e-07,0.42,0.76,0
0.019882,-0.0055361,0.03453,-0.00011728,0.010324,-0.00025236,0,0,0.031468,-0.013573,0,-0.00065613,0,0,0,0.034532,-0.00011918,0.010324,-0.41739,0.014912,0.030788,9.382e-07,0.43,0.76,0
0.020197,-0.0056614,0.03459,2.1461e-05,0.010383,-0.00027315,0,0,0.031468,-0.01347,0,-0.00071018,0,0,0,0.034592,1.9243e-05,0.010383,-0.4528,0.014998,0.030731,9.3908e-07,0.44,0.76,0
0.020512,-0.0057868,0.034651,0.00015323,0.010441,-0.00028787,0,0,0.031472,-0.013374,0,-0.00074846,0,0,0,0.034653,0.00015077,0.010441,-0.47818,0.015082,0.03068,9.4022e-07,0.45,0.76,0
0.020826,-0.005912,0.034713,0.00027541,0.010497,-0.00029521,0,0,0.031481,-0.013287,0,-0.00076753,0,0,0,0.034716,0.00027282,0.010497,-0.49121,0.015162,0.030638,9.4171e-07,0.46,0.76,0
0.021141,-0.0060367,0.034778,0.00038515,0.010549,-0.00029427,0,0,0.031497,-0.013213,0,-0.00076511,0,0,0,0.03478,0.00038257,0.010549,-0.49031,0.015237,0.030608,9.437e-07,0.47,0.76,0
0.021456,-0.0061605,0.034845,0.00047964,0.010597,-0.00028474,0,0,0.031522,-0.013153,0,-0.00074031,0,0,0,0.034847,0.00047721,0.010597,-0.47481,0.015307,0.030592,9.4634e-07,0.48,0.76,0
0.021772,-0.0062831,0.034916,0.00055633,0.010642,-0.00026679,0,0,0.031556,-0.013111,0,-0.00069365,0,0,0,0.034918,0.00055417,0.010642,-0.44499,0.015371,0.030594,9.4979e-07,0.49,0.76,0
0.022088,-0.0064043,0.034991,0.0006131,0.010681,-0.0002411,0,0,0.031603,-0.013089,0,-0.00062687,0,0,0,0.034993,0.0006113,0.010681,-0.40199,0.015428,0.030615,9.5418e-07,0.5,0.76,0
0.022404,-0.0065238,0.03507,0.0006483,0.010716,-0.00020877,0,0,0.031661,-0.013088,0,-0.0005428,0,0,0,0.035072,0.00064691,0.010716,-0.34771,0.015478,0.030657,9.5962e-07,0.51,0.76,0
0.022721,-0.0066414,0.035155,0.00066083,0.010745,-0.00017122,0,0,0.031733,-0.013109,0,-0.00044516,0,0,0,0.035156,0.00065985,0.010745,-0.28468,0.01552,0.030721,9.6617e-07,0.52,0.76,0
0.023038,-0.0067567,0.035243,0.00065011,0.010768,-0.00013015,0,0,0.031818,-0.013153,0,-0.00033839,0,0,0,0.035244,0.00064947,0.010768,-0.21592,0.015554,0.030808,9.7384e-07,0.53,0.76,0
0.023357,-0.0068698,0.035336,0.00061611,0.010786,-8.7446e-05,0,0,0.031915,-0.01322,0,-0.00022736,0,0,0,0.035336,0.00061573,0.010786,-0.14474,0.015579,0.030917,9.8263e-07,0.54,0.76,0
0.023677,-0.0069804,0.035431,0.00055924,0.010797,-4.492e-05,0,0,0.032024,-0.013309,0,-0.00011679,0,0,0,0.035432,0.00055901,0.010797,-0.074307,0.015596,0.031047,9.9247e-07,0.55,0.76,0
0.023998,-0.0070883,0.03553,0.00047988,0.010803,-4.0615e-06,0,0,0.032146,-0.01342,0,-1.056e-05,0,0,0,0.035531,0.00047972,0.010803,-0.0072205,0.015604,0.031198,1.0034e-06,0.56,0.76,0
0.02432,-0.0071935,0.035634,0.00037694,0.010803,3.3806e-05,0,0,0.03228,-0.013554,0,8.7896e-05,0,0,0,0.035634,0.00037673,0.010803,0.054251,0.015605,0.031372,1.0155e-06,0.57,0.76,0
0.024643,-0.0072957,0.035743,0.00024514,0.010796,6.6466e-05,0,0,0.03243,-0.013717,0,0.00017281,0,0,0,0.035743,0.00024483,0.010796,0.10644,0.015595,0.031574,1.0291e-06,0.58,0.76,0
0.024968,-0.0073948,0.035843,7.6476e-05,0.010776,9.2603e-05,0,0,0.032588,-0.013909,0,0.00024077,0,0,0,0.035844,7.6053e-05,0.010776,0.14735,0.015565,0.031798,1.0432e-06,0.59,0.76,0
0.025295,-0.0074902,0.035914,-0.00011414,0.01074,0.00013244,0,0,0.032727,-0.01411,0,0.00034435,0,0,0,0.035915,-0.00011479,0.01074,0.20955,0.015513,0.032014,1.0555e-06,0.6,0.76,0
0.025623,-0.0075801,0.036001,-0.00029445,0.010712,0.00025685,0,0,0.032876,-0.014308,0,0.00066782,0,0,0,0.036004,-0.00029691,0.010712,0.40374,0.015473,0.032238,1.0689e-06,0.61,0.76,0
0.025953,-0.0076608,0.036145,0.00035294,0.010949,0.00052138,0,0,0.036588,-0.014755,0,0.0017037,0,0,0,0.036155,0.00034231,0.010949,0.86083,0.015816,0.031881,1.0559e-06,0.62,0.76,0
0.026355,-0.0077229,0.03631,0.0025786,0.011667,0.0007995,0,0,0.047471,-0.016078,0,0.0033843,0,0,0,0.036333,0.0025558,0.011667,1.4049,0.016852,0.03031,9.8877e-07,0.63,0.76,0
0.026902,-0.0077611,0.036501,0.0045003,0.0123,0.00088098,0,0,0.058757,-0.01832,0,0.0043567,0,0,0,0.036527,0.0044742,0.0123,1.5917,0.017767,0.028963,9.4003e-07,0.64,0.76,0
0.02753,-0.0077877,0.036685,0.0044053,0.012327,0.00075641,0,0,0.063331,-0.020597,0,0.0039333,0,0,0,0.036704,0.0043865,0.012327,1.3468,0.017806,0.029171,9.635e-07,0.65,0.76,0
0.028169,-0.0078152,0.036779,0.0034678,0.012074,0.00056225,0,0,0.064233,-0.022376,0,0.0029237,0,0,0,0.036789,0.0034575,0.012074,0.97119,0.01744,0.029968,1.0066e-06,0.66,0.76,0
0.028814,-0.0078464,0.036772,0.0027135,0.011846,0.00039078,0,0,0.064808,-0.023743,0,0.0020321,0,0,0,0.036777,0.0027086,0.011846,0.66015,0.01711,0.030543,1.0338e-06,0.67,0.76,0
0.029465,-0.007881,0.036702,0.0020937,0.011639,0.00026847,0,0,0.065165,-0.024817,0,0.001396,0,0,0,0.036705,0.0020913,0.011639,0.44606,0.016812,0.030964,1.0501e-06,0.68,0.76,0
0.030118,-0.0079178,0.036598,0.0015801,0.011453,0.00019128,0,0,0.065376,-0.025671,0,0.00099464,0,0,0,0.036599,0.0015788,0.011453,0.31383,0.016544,0.031275,1.0592e-06,0.69,0.76,0
0.030772,-0.0079557,0.036474,0.0011522,0.011288,0.00014867,0,0,0.065484,-0.026353,0,0.00077306,0,0,0,0.036475,0.0011513,0.011288,0.2416,0.016305,0.031503,1.0631e-06,0.7,0.76,0
0.031427,-0.0079938,0.036338,0.00079397,0.01114,0.00013073,0,0,0.065516,-0.026899,0,0.00067981,0,0,0,0.036339,0.00079321,0.01114,0.21096,0.016091,0.031667,1.0632e-06,0.71,0.76,0
0.032083,-0.0080312,0.036196,0.00049275,0.011007,0.00012958,0,0,0.065493,-0.027336,0,0.00067382,0,0,0,0.036197,0.00049199,0.011007,0.20806,0.015899,0.03178,1.0607e-06,0.72,0.76,0
0.032737,-0.0080676,0.036053,0.00023849,0.010887,0.00013929,0,0,0.06543,-0.027687,0,0.00072429,0,0,0,0.036053,0.00023766,0.010887,0.2229,0.015726,0.031855,1.0563e-06,0.73,0.76,0
0.033391,-0.0081026,0.03591,2.3161e-05,0.01078,0.00015553,0,0,0.065338,-0.027967,0,0.00080874,0,0,0,0.035911,2.22e-05,0.01078,0.24837,0.015571,0.0319,1.0506e-06,0.74,0.76,0
0.034044,-0.0081358,0.03577,-0.00015971,0.010683,0.00017519,0,0,0.065226,-0.028191,0,0.000911,0,0,0,0.035771,-0.00016084,0.010683,0.27944,0.015431,0.031923,1.044e-06,0.75,0.76,0
0.034696,-0.0081671,0.035635,-0.00031535,0.010596,0.00019607,0,0,0.065101,-0.028369,0,0.0010195,0,0,0,0.035636,-0.00031667,0.010596,0.31257,0.015305,0.031927,1.037e-06,0.76,0.76,0
0.035346,-0.0081964,0.035504,-0.000448,0.010517,0.00021658,0,0,0.064967,-0.028509,0,0.0011262,0,0,0,0.035506,-0.00044953,0.010517,0.34525,0.015191,0.031918,1.0298e-06,0.77,0.76,0
0.035995,-0.0082236,0.03538,-0.00056114,0.010446,0.00023564,0,0,0.06483,-0.028618,0,0.0012253,0,0,0,0.035382,-0.00056289,0.010446,0.37576,0.015088,0.031899,1.0224e-06,0.78,0.76,0
0.036643,-0.0082489,0.035262,-0.00065766,0.010381,0.0002525,0,0,0.064691,-0.028702,0,0.001313,0,0,0,0.035264,-0.00065962,0.010381,0.40288,0.014995,0.031872,1.0151e-06,0.79,0.76,0
0.037289,-0.0082721,0.035151,-0.00073995,0.010323,0.00026666,0,0,0.064552,-0.028765,0,0.0013866,0,0,0,0.035153,-0.0007421,0.010323,0.42581,0.014911,0.031839,1.008e-06,0.8,0.76,0
0.037934,-0.0082934,0.035046,-0.00081004,0.010271,0.00027781,0,0,0.064416,-0.02881,0,0.0014446,0,0,0,0.035048,-0.00081233,0.010271,0.44404,0.014836,0.031802,1.0011e-06,0.81,0.76,0
0.038577,-0.0083129,0.034948,-0.00086962,0.010223,0.00028577,0,0,0.064283,-0.028842,0,0.001486,0,0,0,0.03495,-0.00087203,0.010223,0.45726,0.014767,0.031763,9.9445e-07,0.82,0.76,0
0.039219,-0.0083305,0.034856,-0.00092016,0.010181,0.00029048,0,0,0.064155,-0.028862,0,0.0015105,0,0,0,0.034858,-0.00092263,0.010181,0.46533,0.014705,0.031722,9.881e-07,0.83,0.76,0
0.03986,-0.0083465,0.03477,-0.00096291,0.010142,0.00029194,0,0,0.064033,-0.028873,0,0.0015181,0,0,0,0.034773,-0.00096539,0.010142,0.46823,0.01465,0.03168,9.8208e-07,0.84,0.76,0
0.0405,-0.0083609,0.03469,-0.00099894,0.010107,0.00029022,0,0,0.063916,-0.028877,0,0.0015091,0,0,0,0.034693,-0.0010014,0.010107,0.46603,0.0146,0.031638,9.764e-07,0.85,0.76,0
0.041139,-0.0083738,0.034617,-0.0010292,0.010076,0.00028543,0,0,0.063805,-0.028874,0,0.0014842,0,0,0,0.034619,-0.0010316,0.010076,0.45889,0.014555,0.031597,9.7108e-07,0.86,0.76,0
0.041776,-0.0083854,0.034549,-0.0010545,0.010048,0.0002777,0,0,0.063702,-0.028867,0,0.0014441,0,0,0,0.034551,-0.0010567,0.010048,0.447,0.014514,0.031557,9.6612e-07,0.87,0.76,0
0.042413,-0.0083956,0.034487,-0.0010755,0.010023,0.00026722,0,0,0.063605,-0.028857,0,0.0013895,0,0,0,0.034489,-0.0010776,0.010023,0.43062,0.014478,0.031518,9.6152e-07,0.88,0.76,0
0.043048,-0.0084046,0.03443,-0.0010929,0.010001,0.00025415,0,0,0.063516,-0.028845,0,0.0013216,0,0,0,0.034432,-0.0010948,0.010001,0.41001,0.014446,0.031482,9.573e-07,0.89,0.76,0
0.043683,-0.0084126,0.034379,-0.0011072,0.0099816,0.00023869,0,0,0.063434,-0.028831,0,0.0012412,0,0,0,0.034381,-0.0011089,0.0099816,0.38547,0.014418,0.031447,9.5344e-07,0.9,0.76,0
0.044317,-0.0084195,0.034333,-0.0011189,0.0099644,0.00022106,0,0,0.06336,-0.028817,0,0.0011495,0,0,0,0.034335,-0.0011203,0.0099644,0.35734,0.014393,0.031416,9.4996e-07,0.91,0.76,0
0.04495,-0.0084254,0.034293,-0.0011283,0.0099493,0.00020146,0,0,0.063293,-0.028802,0,0.0010476,0,0,0,0.034294,-0.0011295,0.0099493,0.32595,0.014371,0.031387,9.4685e-07,0.92,0.76,0
0.045583,-0.0084305,0.034257,-0.0011359,0.0099364,0.00018011,0,0,0.063234,-0.028788,0,0.00093656,0,0,0,0.034258,-0.0011369,0.0099364,0.29164,0.014353,0.03136,9.441e-07,0.93,0.76,0
0.046215,-0.0084348,0.034226,-0.0011419,0.0099254,0.00015722,0,0,0.063183,-0.028775,0,0.00081756,0,0,0,0.034227,-0.0011426,0.0099254,0.25476,0.014337,0.031338,9.4173e-07,0.94,0.76,0
0.046846,-0.0084383,0.034201,-0.0011466,0.0099162,0.00013302,0,0,0.063139,-0.028763,0,0.00069173,0,0,0,0.034201,-0.0011471,0.0099162,0.21568,0.014323,0.031318,9.3972e-07,0.95,0.76,0
0.047478,-0.0084412,0.03418,-0.0011501,0.0099088,0.00010773,0,0,0.063104,-0.028753,0,0.0005602,0,0,0,0.03418,-0.0011505,0.0099088,0.17476,0.014313,0.031302,9.3808e-07,0.96,0.76,0
0.048108,-0.0084433,0.034163,-0.0011527,0.0099031,8.1564e-05,0,0,0.063076,-0.028745,0,0.00042413,0,0,0,0.034163,-0.0011529,0.0099031,0.13236,0.014305,0.031289,9.3681e-07,0.97,0.76,0
0.048739,-0.0084448,0.034152,-0.0011545,0.0098991,5.474e-05,0,0,0.063056,-0.028739,0,0.00028465,0,0,0,0.034152,-0.0011546,0.0098991,0.088855,0.014299,0.03128,9.359e-07,0.98,0.76,0
0.04937,-0.0084457,0.034145,-0.0011555,0.0098967,2.6049e-05,0,0,0.063045,-0.028736,0,0.00013545,0,0,0,0.034145,-0.0011555,0.0098967,0.042291,0.014295,0.031275,9.3535e-07,0.99,0.76,0
0.049685,-0.008446,0.034142,-0.0011558,0.0098959,1.0907e-05,0,0,0.063041,-0.028735,0,5.6715e-05,0,0,0,0.034142,-0.0011559,0.0098959,0.01771,0.014294,0.031273,9.3517e-07,1,0.76,0
0.00022643,-0.00010217,0.030455,0.01275,0.012962,-0.0039232,0,0,0.045484,-0.00055049,0,-0.020401,0,0,0,0.031287,0.011918,0.012962,-11.95,0.018722,0.018869,3.4146e-07,0,0.77,0
0.00045484,-0.00020425,0.030496,0.012463,0.012888,-0.0039116,0,0,0.045781,-0.0011043,0,-0.02034,0,0,0,0.031309,0.011649,0.012888,-11.73,0.018615,0.019072,3.5122e-07,0.01,0.77,0
0.00091562,-0.00040798,0.030642,0.011914,0.012767,-0.0038764,0,0,0.046476,-0.0022179,0,-0.020157,0,0,0,0.031415,0.011142,0.012767,-11.249,0.018441,0.019513,3.7271e-07,0.02,0.77,0
0.0013844,-0.00061037,0.030856,0.011387,0.012673,-0.0038162,0,0,0.047276,-0.0033428,0,-0.019844,0,0,0,0.031579,0.010664,0.012673,-10.709,0.018305,0.019988,3.9624e-07,0.03,0.77,0
0.0018611,-0.0008105,0.03107,0.010857,0.012578,-0.0037303,0,0,0.048079,-0.0044757,0,-0.019397,0,0,0,0.031738,0.010188,0.012578,-10.135,0.018168,0.020461,4.1986e-07,0.04,0.77,0
0.002346,-0.0010074,0.031284,0.010324,0.012482,-0.0036196,0,0,0.048884,-0.0056123,0,-0.018822,0,0,0,0.031893,0.0097144,0.012482,-9.5324,0.01803,0.020934,4.4357e-07,0.05,0.77,0
0.0028388,-0.0012003,0.031497,0.0097911,0.012386,-0.0034853,0,0,0.049687,-0.0067475,0,-0.018124,0,0,0,0.032045,0.0092432,0.012386,-8.9075,0.017891,0.021405,4.6732e-07,0.06,0.77,0
0.0033397,-0.0013884,0.031707,0.0092615,0.012291,-0.0033288,0,0,0.050483,-0.0078758,0,-0.01731,0,0,0,0.032193,0.0087761,0.012291,-8.2657,0.017753,0.021873,4.9107e-07,0.07,0.77,0
0.0038485,-0.0015709,0.031915,0.0087375,0.012196,-0.0031517,0,0,0.051271,-0.0089918,0,-0.016389,0,0,0,0.032338,0.0083144,0.012196,-7.6122,0.017616,0.022339,5.1479e-07,0.08,0.77,0
0.0043651,-0.0017472,0.03212,0.0082219,0.012103,-0.002956,0,0,0.052046,-0.01009,0,-0.015371,0,0,0,0.032483,0.0078596,0.012103,-6.9525,0.017482,0.0228,5.3844e-07,0.09,0.77,0
0.0048894,-0.0019167,0.032322,0.0077176,0.012012,-0.002744,0,0,0.052806,-0.011165,0,-0.014269,0,0,0,0.032626,0.0074131,0.012012,-6.2917,0.01735,0.023258,5.6201e-07,0.1,0.77,0
0.0054212,-0.002079,0.032519,0.0072271,0.011924,-0.0025181,0,0,0.053548,-0.012212,0,-0.013094,0,0,0,0.03277,0.0069767,0.011924,-5.635,0.017223,0.023711,5.8547e-07,0.11,0.77,0
0.0059604,-0.0022337,0.032714,0.0067532,0.01184,-0.0022812,0,0,0.054272,-0.013226,0,-0.011862,0,0,0,0.032915,0.0065521,0.01184,-4.9876,0.017102,0.024157,6.0881e-07,0.12,0.77,0
0.0065066,-0.0023806,0.032905,0.0062986,0.011761,-0.0020361,0,0,0.054974,-0.014203,0,-0.010588,0,0,0,0.033062,0.0061416,0.011761,-4.3544,0.016988,0.024598,6.3202e-07,0.13,0.77,0
0.0070599,-0.0025197,0.033094,0.0058664,0.011688,-0.0017861,0,0,0.055655,-0.015136,0,-0.0092878,0,0,0,0.033212,0.0057478,0.011688,-3.7403,0.016883,0.025029,6.5505e-07,0.14,0.77,0
0.0076197,-0.002651,0.03328,0.0054601,0.011622,-0.0015345,0,0,0.056311,-0.016021,0,-0.0079794,0,0,0,0.033366,0.0053739,0.011622,-3.1501,0.016787,0.025451,6.7784e-07,0.15,0.77,0
0.0081861,-0.0027746,0.033465,0.0050838,0.011565,-0.0012848,0,0,0.05694,-0.01685,0,-0.006681,0,0,0,0.033524,0.005024,0.011565,-2.5887,0.016704,0.025859,7.0028e-07,0.16,0.77,0
0.0087586,-0.0028912,0.033647,0.0047424,0.011517,-0.0010408,0,0,0.057538,-0.017613,0,-0.0054122,0,0,0,0.033686,0.0047034,0.011517,-2.061,0.016635,0.026248,7.2218e-07,0.17,0.77,0
0.0093368,-0.0030011,0.033826,0.0044422,0.01148,-0.00080665,0,0,0.058099,-0.0183,0,-0.0041946,0,0,0,0.03385,0.0044186,0.01148,-1.5721,0.016583,0.026613,7.4324e-07,0.18,0.77,0
0.0099205,-0.0031051,0.034001,0.0041908,0.011458,-0.00058695,0,0,0.058613,-0.018894,0,-0.0030521,0,0,0,0.034014,0.004178,0.011458,-1.1278,0.01655,0.026944,7.6302e-07,0.19,0.77,0
0.010509,-0.0032042,0.034169,0.0039982,0.01145,-0.00038705,0,0,0.059068,-0.019375,0,-0.0020127,0,0,0,0.034175,0.0039922,0.01145,-0.73455,0.016539,0.027231,7.8089e-07,0.2,0.77,0
0.011102,-0.0032996,0.034324,0.0038764,0.01146,-0.00021334,0,0,0.059446,-0.019718,0,-0.0011094,0,0,0,0.034326,0.0038742,0.01146,-0.40067,0.016553,0.027457,7.9596e-07,0.21,0.77,0
0.011698,-0.0033926,0.034459,0.0038408,0.01149,-7.3488e-05,0,0,0.05972,-0.019888,0,-0.00038214,0,0,0,0.03446,0.0038401,0.01149,-0.13649,0.016597,0.027602,8.0697e-07,0.22,0.77,0
0.012296,-0.0034849,0.034564,0.0039095,0.011542,2.3799e-05,0,0,0.059857,-0.019845,0,0.00012375,0,0,0,0.034564,0.0039093,0.011542,0.045446,0.016672,0.027641,8.1228e-07,0.23,0.77,0
0.012895,-0.0035782,0.034622,0.0041039,0.011618,7.0816e-05,0,0,0.059811,-0.019536,0,0.00036824,0,0,0,0.034622,0.0041037,0.011618,0.13341,0.016781,0.027542,8.0979e-07,0.24,0.77,0
0.013493,-0.0036744,0.034616,0.004447,0.011719,6.7626e-05,0,0,0.059533,-0.018907,0,0.00035166,0,0,0,0.034617,0.0044468,0.011719,0.12798,0.016927,0.027271,7.9728e-07,0.25,0.77,0
0.014086,-0.0037746,0.034542,0.0049555,0.011849,3.3888e-05,0,0,0.059001,-0.017924,0,0.00017622,0,0,0,0.034542,0.0049552,0.011849,0.064447,0.017116,0.026814,7.7381e-07,0.26,0.77,0
0.014673,-0.0038786,0.03442,0.0045459,0.01169,1.9472e-05,0,0,0.05512,-0.016662,0,7.0955e-05,0,0,0,0.034421,0.0045454,0.01169,0.033051,0.016885,0.027042,7.7448e-07,0.27,0.77,0
0.015188,-0.0039842,0.0343,0.0020562,0.010907,8.2709e-05,0,0,0.04493,-0.015502,0,0.00022339,0,0,0,0.034301,0.0020554,0.010907,0.13272,0.015754,0.028903,8.4187e-07,0.28,0.77,0
0.015571,-0.0040886,0.034226,-0.00059657,0.010089,0.0002163,0,0,0.034995,-0.014847,0,0.00056796,0,0,0,0.034228,-0.00059836,0.010089,0.34759,0.014573,0.030921,9.213e-07,0.29,0.77,0
0.015888,-0.0041908,0.034203,-0.001432,0.0098312,0.00032837,0,0,0.031683,-0.014642,0,0.00085377,0,0,0,0.034206,-0.0014352,0.0098312,0.52812,0.014201,0.031554,9.4766e-07,0.3,0.77,0
0.016205,-0.0042919,0.034225,-0.0014005,0.0098474,0.00034843,0,0,0.031691,-0.014622,0,0.00090592,0,0,0,0.034229,-0.001404,0.0098474,0.56037,0.014224,0.031549,9.4871e-07,0.31,0.77,0
0.016522,-0.0043941,0.034271,-0.0013929,0.0098633,0.00029269,0,0,0.03173,-0.014633,0,0.00076099,0,0,0,0.034273,-0.0013954,0.0098633,0.47021,0.014247,0.031582,9.5214e-07,0.32,0.77,0
0.016839,-0.0044987,0.034307,-0.0013572,0.0098851,0.00020844,0,0,0.031749,-0.014615,0,0.00054196,0,0,0,0.034309,-0.0013585,0.0098851,0.3348,0.014278,0.031584,9.5411e-07,0.33,0.77,0
0.017157,-0.0046062,0.034328,-0.0012921,0.0099108,0.00012363,0,0,0.031742,-0.014564,0,0.00032143,0,0,0,0.034329,-0.0012926,0.0099108,0.19874,0.014316,0.031548,9.54e-07,0.34,0.77,0
0.017474,-0.0047166,0.03434,-0.0012003,0.0099418,4.7416e-05,0,0,0.031717,-0.014485,0,0.00012328,0,0,0,0.03434,-0.0012005,0.0099418,0.076296,0.01436,0.031484,9.5248e-07,0.35,0.77,0
0.017791,-0.0048296,0.034349,-0.0010863,0.0099787,-1.8779e-05,0,0,0.031681,-0.014385,0,-4.8826e-05,0,0,0,0.034349,-0.0010864,0.0099787,-0.030516,0.014414,0.0314,9.5017e-07,0.36,0.77,0
0.018108,-0.004945,0.034359,-0.00095611,0.010021,-7.5755e-05,0,0,0.031639,-0.01427,0,-0.00019696,0,0,0,0.034359,-0.00095632,0.010021,-0.12304,0.014474,0.031305,9.4751e-07,0.37,0.77,0
0.018424,-0.0050625,0.034373,-0.00081565,0.010067,-0.00012507,0,0,0.031597,-0.014148,0,-0.00032518,0,0,0,0.034373,-0.00081613,0.010067,-0.20376,0.014541,0.031205,9.4486e-07,0.38,0.77,0
0.01874,-0.0051819,0.034392,-0.00066988,0.010117,-0.00016847,0,0,0.031558,-0.014022,0,-0.00043803,0,0,0,0.034393,-0.00067072,0.010117,-0.2754,0.014613,0.031106,9.4244e-07,0.39,0.77,0
0.019055,-0.0053027,0.034416,-0.00052238,0.010168,-0.00020741,0,0,0.031523,-0.013898,0,-0.00053928,0,0,0,0.034418,-0.00052364,0.010168,-0.34022,0.014687,0.03101,9.4039e-07,0.4,0.77,0
0.01937,-0.0054248,0.034446,-0.00037566,0.010221,-0.00024272,0,0,0.031492,-0.013776,0,-0.00063108,0,0,0,0.034448,-0.00037738,0.010221,-0.39945,0.014764,0.03092,9.3874e-07,0.41,0.77,0
0.019685,-0.0055479,0.03448,-0.00023163,0.010275,-0.00027449,0,0,0.031467,-0.013658,0,-0.00071369,0,0,0,0.034482,-0.00023383,0.010275,-0.45314,0.014841,0.030836,9.3748e-07,0.42,0.77,0
0.02,-0.0056717,0.034518,-9.2024e-05,0.010328,-0.0003022,0,0,0.031448,-0.013546,0,-0.00078572,0,0,0,0.034521,-9.4697e-05,0.010328,-0.50033,0.014918,0.030759,9.3662e-07,0.43,0.77,0
0.020314,-0.005796,0.03456,4.1311e-05,0.01038,-0.00032493,0,0,0.031433,-0.013441,0,-0.00084481,0,0,0,0.034563,3.8219e-05,0.01038,-0.53936,0.014994,0.030689,9.3616e-07,0.44,0.77,0
0.020628,-0.0059204,0.034604,0.0001663,0.010431,-0.00034162,0,0,0.031425,-0.013344,0,-0.00088821,0,0,0,0.034607,0.00016288,0.010431,-0.56838,0.015067,0.03063,9.3614e-07,0.45,0.77,0
0.020942,-0.0060448,0.034651,0.00028065,0.01048,-0.00035134,0,0,0.031423,-0.013259,0,-0.00091347,0,0,0,0.034655,0.00027702,0.01048,-0.58568,0.015137,0.030581,9.3665e-07,0.46,0.77,0
0.021257,-0.0061687,0.034702,0.00038199,0.010525,-0.00035341,0,0,0.03143,-0.013186,0,-0.00091888,0,0,0,0.034706,0.00037831,0.010525,-0.59,0.015203,0.030546,9.3779e-07,0.47,0.77,0
0.021571,-0.0062919,0.034757,0.00046799,0.010568,-0.00034755,0,0,0.031447,-0.013129,0,-0.00090364,0,0,0,0.034761,0.00046442,0.010568,-0.58076,0.015264,0.030526,9.3966e-07,0.48,0.77,0
0.021886,-0.0064141,0.034816,0.00053658,0.010606,-0.00033385,0,0,0.031474,-0.01309,0,-0.000868,0,0,0,0.03482,0.00053327,0.010606,-0.55804,0.01532,0.030523,9.4238e-07,0.49,0.77,0
0.022201,-0.0065351,0.03488,0.00058602,0.01064,-0.00031277,0,0,0.031512,-0.01307,0,-0.00081319,0,0,0,0.034883,0.00058309,0.01064,-0.52263,0.015369,0.03054,9.4604e-07,0.5,0.77,0
0.022516,-0.0066546,0.034948,0.00061498,0.010669,-0.00028511,0,0,0.031563,-0.01307,0,-0.00074127,0,0,0,0.034951,0.00061253,0.010669,-0.47593,0.015411,0.030576,9.5069e-07,0.51,0.77,0
0.022832,-0.0067724,0.03502,0.00062265,0.010693,-0.00025194,0,0,0.031626,-0.013091,0,-0.00065505,0,0,0,0.035022,0.0006207,0.010693,-0.41985,0.015445,0.030634,9.5635e-07,0.52,0.77,0
0.023148,-0.0068882,0.035096,0.00060865,0.010711,-0.00021457,0,0,0.0317,-0.013134,0,-0.00055789,0,0,0,0.035097,0.0006072,0.010711,-0.35675,0.015472,0.030711,9.6297e-07,0.53,0.77,0
0.023466,-0.0070019,0.035174,0.00057304,0.010724,-0.00017447,0,0,0.031785,-0.013196,0,-0.00045361,0,0,0,0.035175,0.00057204,0.010724,-0.28922,0.01549,0.030808,9.7048e-07,0.54,0.77,0
0.023784,-0.0071133,0.035252,0.00051603,0.01073,-0.00013318,0,0,0.031878,-0.013279,0,-0.00034627,0,0,0,0.035252,0.00051541,0.01073,-0.22005,0.015499,0.030922,9.7874e-07,0.55,0.77,0
0.024103,-0.0072223,0.035328,0.00043749,0.01073,-9.2424e-05,0,0,0.031978,-0.01338,0,-0.0002403,0,0,0,0.035329,0.00043714,0.01073,-0.1522,0.015498,0.031052,9.8758e-07,0.56,0.77,0
0.024424,-0.0073287,0.0354,0.00033584,0.010721,-5.416e-05,0,0,0.032083,-0.0135,0,-0.00014082,0,0,0,0.0354,0.00033567,0.010721,-0.088952,0.015486,0.031197,9.9682e-07,0.57,0.77,0
0.024745,-0.0074325,0.035463,0.00020715,0.010701,-1.973e-05,0,0,0.03219,-0.013642,0,-5.1298e-05,0,0,0,0.035463,0.00020707,0.010701,-0.032526,0.015457,0.031355,1.0061e-06,0.58,0.77,0
0.025068,-0.0075333,0.03551,4.6697e-05,0.010667,1.5663e-05,0,0,0.032296,-0.013806,0,4.0723e-05,0,0,0,0.03551,4.6635e-05,0.010667,0.024846,0.015408,0.031525,1.0151e-06,0.59,0.77,0
0.025391,-0.0076306,0.035552,-0.00015358,0.01062,7.4015e-05,0,0,0.032412,-0.014005,0,0.00019244,0,0,0,0.035552,-0.00015384,0.01062,0.1181,0.015339,0.031723,1.0249e-06,0.6,0.77,0
0.025716,-0.0077231,0.035624,-0.00045616,0.01055,0.00019298,0,0,0.032596,-0.014308,0,0.00050174,0,0,0,0.035625,-0.00045764,0.01055,0.30457,0.015239,0.032031,1.0404e-06,0.61,0.77,0
0.026043,-0.0078092,0.035742,4.9479e-05,0.010738,0.00037622,0,0,0.036301,-0.014879,0,0.0012073,0,0,0,0.035748,4.4079e-05,0.010738,0.62053,0.01551,0.031757,1.0296e-06,0.62,0.77,0
0.026442,-0.0078834,0.035914,0.0023811,0.011488,0.00055164,0,0,0.047015,-0.016051,0,0.0023249,0,0,0,0.035925,0.0023699,0.011488,0.97625,0.016594,0.030096,9.603e-07,0.63,0.77,0
0.026983,-0.0079417,0.036134,0.0045495,0.012205,0.00063179,0,0,0.05808,-0.017935,0,0.0031361,0,0,0,0.036148,0.0045354,0.012205,1.1574,0.01763,0.028581,9.0649e-07,0.64,0.77,0
0.027603,-0.0079901,0.036347,0.0045682,0.012275,0.00060081,0,0,0.062588,-0.020036,0,0.0031242,0,0,0,0.036359,0.0045561,0.012275,1.0841,0.01773,0.028734,9.2836e-07,0.65,0.77,0
0.028235,-0.0080361,0.036495,0.0036182,0.012034,0.00050988,0,0,0.063598,-0.021881,0,0.0026514,0,0,0,0.036503,0.0036099,0.012034,0.89042,0.017382,0.029596,9.7652e-07,0.66,0.77,0
0.028875,-0.0080818,0.03656,0.002822,0.011815,0.00041475,0,0,0.064338,-0.023381,0,0.0021567,0,0,0,0.036565,0.0028168,0.011815,0.7059,0.017065,0.03027,1.0115e-06,0.67,0.77,0
0.029522,-0.0081279,0.036549,0.0021631,0.011614,0.00034241,0,0,0.064833,-0.024572,0,0.0017805,0,0,0,0.036553,0.0021596,0.011614,0.57157,0.016775,0.030776,1.0344e-06,0.68,0.77,0
0.030172,-0.0081737,0.036485,0.0016189,0.011431,0.00029733,0,0,0.065139,-0.025512,0,0.0015461,0,0,0,0.036487,0.0016162,0.011431,0.48925,0.016511,0.031146,1.048e-06,0.69,0.77,0
0.030824,-0.0082187,0.036384,0.0011687,0.011266,0.00027478,0,0,0.065307,-0.026252,0,0.0014289,0,0,0,0.036386,0.0011663,0.011266,0.44746,0.016273,0.031413,1.0548e-06,0.7,0.77,0
0.031478,-0.0082625,0.036261,0.00079519,0.011117,0.00026843,0,0,0.065374,-0.026836,0,0.0013958,0,0,0,0.036263,0.0007929,0.011117,0.43392,0.016058,0.031599,1.0565e-06,0.71,0.77,0
0.032132,-0.0083045,0.036125,0.00048404,0.010983,0.00027285,0,0,0.065369,-0.027296,0,0.0014188,0,0,0,0.036127,0.00048167,0.010983,0.43883,0.015864,0.031726,1.0549e-06,0.72,0.77,0
0.032785,-0.0083445,0.035983,0.0002238,0.010862,0.0002839,0,0,0.065314,-0.027659,0,0.0014763,0,0,0,0.035985,0.00022125,0.010862,0.45506,0.015689,0.031808,1.0508e-06,0.73,0.77,0
0.033438,-0.0083822,0.035839,5.3498e-06,0.010753,0.00029855,0,0,0.065223,-0.027945,0,0.0015525,0,0,0,0.035842,2.5674e-06,0.010753,0.47753,0.015533,0.031855,1.0452e-06,0.74,0.77,0
0.03409,-0.0084177,0.035697,-0.00017859,0.010656,0.00031464,0,0,0.065108,-0.028169,0,0.0016361,0,0,0,0.0357,-0.00018163,0.010656,0.50265,0.015391,0.031876,1.0385e-06,0.75,0.77,0
0.03474,-0.0084507,0.035559,-0.00033382,0.010567,0.0003306,0,0,0.064977,-0.028343,0,0.0017191,0,0,0,0.035562,-0.00033713,0.010567,0.5279,0.015264,0.031878,1.0312e-06,0.76,0.77,0
0.03539,-0.0084814,0.035425,-0.00046503,0.010488,0.00034536,0,0,0.064837,-0.028478,0,0.0017959,0,0,0,0.035429,-0.0004686,0.010488,0.55149,0.01515,0.031865,1.0237e-06,0.77,0.77,0
0.036037,-0.0085097,0.035298,-0.00057602,0.010417,0.00035816,0,0,0.064692,-0.028581,0,0.0018624,0,0,0,0.035302,-0.00057981,0.010417,0.57218,0.015046,0.031841,1.016e-06,0.78,0.77,0
0.036683,-0.0085358,0.035177,-0.0006699,0.010352,0.00036848,0,0,0.064545,-0.028657,0,0.0019161,0,0,0,0.035181,-0.00067388,0.010352,0.5891,0.014953,0.031809,1.0084e-06,0.79,0.77,0
0.037328,-0.0085596,0.035063,-0.00074925,0.010294,0.00037598,0,0,0.064399,-0.028713,0,0.0019551,0,0,0,0.035067,-0.00075337,0.010294,0.60168,0.014869,0.031771,1.001e-06,0.8,0.77,0
0.037971,-0.0085813,0.034955,-0.00081621,0.010242,0.00038047,0,0,0.064256,-0.028751,0,0.0019785,0,0,0,0.03496,-0.00082041,0.010242,0.60954,0.014794,0.03173,9.9379e-07,0.81,0.77,0
0.038613,-0.008601,0.034855,-0.00087259,0.010195,0.00038185,0,0,0.064116,-0.028775,0,0.0019856,0,0,0,0.034859,-0.00087681,0.010195,0.61249,0.014726,0.031686,9.8688e-07,0.82,0.77,0
0.039254,-0.0086189,0.034761,-0.00091993,0.010152,0.00038008,0,0,0.063982,-0.028788,0,0.0019764,0,0,0,0.034765,-0.0009241,0.010152,0.61045,0.014664,0.03164,9.8029e-07,0.83,0.77,0
0.039893,-0.0086349,0.034673,-0.00095953,0.010114,0.0003752,0,0,0.063854,-0.028791,0,0.0019511,0,0,0,0.034677,-0.00096358,0.010114,0.60342,0.014609,0.031594,9.7406e-07,0.84,0.77,0
0.040531,-0.0086493,0.034592,-0.00099251,0.01008,0.0003673,0,0,0.063732,-0.028788,0,0.00191,0,0,0,0.034596,-0.00099639,0.01008,0.59152,0.01456,0.031548,9.6818e-07,0.85,0.77,0
0.041167,-0.0086622,0.034517,-0.0010198,0.010049,0.0003565,0,0,0.063617,-0.02878,0,0.0018538,0,0,0,0.034521,-0.0010235,0.010049,0.57488,0.014516,0.031503,9.6269e-07,0.86,0.77,0
0.041803,-0.0086736,0.034448,-0.0010424,0.010022,0.00034293,0,0,0.063509,-0.028767,0,0.0017832,0,0,0,0.034452,-0.0010458,0.010022,0.55372,0.014476,0.031459,9.5758e-07,0.87,0.77,0
0.042438,-0.0086837,0.034385,-0.0010608,0.0099974,0.00032675,0,0,0.063409,-0.028751,0,0.0016991,0,0,0,0.034388,-0.0010639,0.0099974,0.52826,0.014441,0.031418,9.5285e-07,0.88,0.77,0
0.043071,-0.0086926,0.034328,-0.0010758,0.0099757,0.00030815,0,0,0.063316,-0.028734,0,0.0016024,0,0,0,0.034331,-0.0010785,0.0099757,0.49878,0.014409,0.031378,9.4851e-07,0.89,0.77,0
0.043704,-0.0087004,0.034276,-0.0010879,0.0099566,0.0002873,0,0,0.063232,-0.028716,0,0.001494,0,0,0,0.034279,-0.0010903,0.0099566,0.46556,0.014382,0.031341,9.4456e-07,0.9,0.77,0
0.044336,-0.0087071,0.03423,-0.0010976,0.0099398,0.00026441,0,0,0.063155,-0.028697,0,0.0013749,0,0,0,0.034232,-0.0010996,0.0099398,0.42892,0.014357,0.031307,9.4099e-07,0.91,0.77,0
0.044967,-0.0087129,0.034189,-0.0011052,0.0099251,0.00023968,0,0,0.063086,-0.028679,0,0.0012463,0,0,0,0.034191,-0.0011069,0.0099251,0.38917,0.014336,0.031277,9.3781e-07,0.92,0.77,0
0.045598,-0.0087178,0.034153,-0.0011112,0.0099126,0.00021331,0,0,0.063025,-0.028662,0,0.0011092,0,0,0,0.034154,-0.0011125,0.0099126,0.34664,0.014318,0.031249,9.3501e-07,0.93,0.77,0
0.046228,-0.008722,0.034122,-0.0011158,0.0099019,0.00018549,0,0,0.062973,-0.028646,0,0.00096457,0,0,0,0.034123,-0.0011168,0.0099019,0.30167,0.014303,0.031225,9.3259e-07,0.94,0.77,0
0.046857,-0.0087254,0.034096,-0.0011193,0.0098931,0.00015645,0,0,0.062928,-0.028632,0,0.00081356,0,0,0,0.034097,-0.0011201,0.0098931,0.25461,0.01429,0.031204,9.3055e-07,0.95,0.77,0
0.047486,-0.0087281,0.034075,-0.0011219,0.0098859,0.00012639,0,0,0.062892,-0.028621,0,0.00065723,0,0,0,0.034076,-0.0011224,0.0098859,0.20579,0.01428,0.031187,9.2888e-07,0.96,0.77,0
0.048115,-0.0087301,0.034059,-0.0011238,0.0098805,9.5508e-05,0,0,0.062863,-0.028611,0,0.00049664,0,0,0,0.034059,-0.0011241,0.0098805,0.15557,0.014272,0.031173,9.2758e-07,0.97,0.77,0
0.048743,-0.0087316,0.034047,-0.001125,0.0098766,6.4012e-05,0,0,0.062843,-0.028604,0,0.00033286,0,0,0,0.034047,-0.0011252,0.0098766,0.1043,0.014266,0.031164,9.2665e-07,0.98,0.77,0
0.049372,-0.0087324,0.03404,-0.0011257,0.0098743,3.0741e-05,0,0,0.062831,-0.0286,0,0.00015985,0,0,0,0.03404,-0.0011258,0.0098743,0.050099,0.014263,0.031158,9.261e-07,0.99,0.77,0
0.049686,-0.0087327,0.034038,-0.001126,0.0098735,1.3346e-05,0,0,0.062827,-0.028599,0,6.9397e-05,0,0,0,0.034038,-0.001126,0.0098735,0.021752,0.014262,0.031156,9.2592e-07,1,0.77,0
0.00022668,-0.00010782,0.030488,0.012747,0.012971,-0.0041409,0,0,0.045545,-0.00058042,0,-0.021532,0,0,0,0.031408,0.011827,0.012971,-12.512,0.018735,0.019036,3.4992e-07,0,0.78,0
0.00045545,-0.00021559,0.03053,0.012445,0.012893,-0.0041297,0,0,0.045858,-0.0011638,0,-0.021474,0,0,0,0.03143,0.011545,0.012893,-12.277,0.018623,0.019248,3.6021e-07,0.01,0.78,0
0.00091716,-0.00043075,0.030685,0.011867,0.012766,-0.0040955,0,0,0.04659,-0.002336,0,-0.021297,0,0,0,0.03154,0.011013,0.012766,-11.767,0.018439,0.01971,3.8288e-07,0.02,0.78,0
0.0013873,-0.00064468,0.03091,0.011314,0.012667,-0.0040363,0,0,0.047432,-0.003518,0,-0.020988,0,0,0,0.031711,0.010514,0.012667,-11.2,0.018297,0.020208,4.0771e-07,0.03,0.78,0
0.0018658,-0.0008564,0.031136,0.010758,0.012568,-0.0039505,0,0,0.048276,-0.0047068,0,-0.020543,0,0,0,0.031877,0.010017,0.012568,-10.602,0.018154,0.020704,4.3263e-07,0.04,0.78,0
0.0023528,-0.001065,0.031361,0.0102,0.012468,-0.0038391,0,0,0.049121,-0.0058975,0,-0.019963,0,0,0,0.032038,0.0095231,0.012468,-9.9772,0.01801,0.021198,4.5759e-07,0.05,0.78,0
0.0028482,-0.0012695,0.031585,0.0096441,0.012369,-0.0037031,0,0,0.049963,-0.0070844,0,-0.019256,0,0,0,0.032196,0.0090338,0.012369,-9.3316,0.017866,0.021689,4.8254e-07,0.06,0.78,0
0.003352,-0.0014691,0.031807,0.0090925,0.01227,-0.003544,0,0,0.050797,-0.0082615,0,-0.018429,0,0,0,0.03235,0.0085501,0.01227,-8.6706,0.017723,0.022176,5.0744e-07,0.07,0.78,0
0.0038642,-0.001663,0.032026,0.0085485,0.012172,-0.0033637,0,0,0.05162,-0.0094224,0,-0.017491,0,0,0,0.032501,0.0080738,0.012172,-7.9999,0.017582,0.022659,5.3224e-07,0.08,0.78,0
0.0043845,-0.0018505,0.032242,0.0080152,0.012077,-0.0031643,0,0,0.052429,-0.010561,0,-0.016454,0,0,0,0.032651,0.0076064,0.012077,-7.325,0.017445,0.023136,5.5689e-07,0.09,0.78,0
0.0049127,-0.0020309,0.032454,0.0074957,0.011985,-0.0029484,0,0,0.053219,-0.011672,0,-0.015332,0,0,0,0.0328,0.0071498,0.011985,-6.6514,0.017311,0.023607,5.8138e-07,0.1,0.78,0
0.0054488,-0.0022038,0.032662,0.0069928,0.011896,-0.0027187,0,0,0.05399,-0.012749,0,-0.014137,0,0,0,0.032949,0.0067057,0.011896,-5.9845,0.017184,0.024072,6.0569e-07,0.11,0.78,0
0.0059925,-0.0023688,0.032866,0.0065094,0.011813,-0.0024783,0,0,0.054739,-0.013788,0,-0.012887,0,0,0,0.033099,0.0062762,0.011813,-5.3293,0.017063,0.024529,6.298e-07,0.12,0.78,0
0.0065436,-0.0025256,0.033067,0.0060485,0.011735,-0.0022303,0,0,0.055465,-0.014784,0,-0.011597,0,0,0,0.033252,0.0058636,0.011735,-4.6907,0.01695,0.024977,6.5369e-07,0.13,0.78,0
0.0071018,-0.0026741,0.033266,0.0056133,0.011664,-0.0019778,0,0,0.056165,-0.015731,0,-0.010284,0,0,0,0.033408,0.0054705,0.011664,-4.0734,0.016848,0.025414,6.7733e-07,0.14,0.78,0
0.0076669,-0.0028142,0.033462,0.0052073,0.011601,-0.0017241,0,0,0.056839,-0.016623,0,-0.0089654,0,0,0,0.033568,0.0051006,0.011601,-3.4816,0.016757,0.025839,7.0066e-07,0.15,0.78,0
0.0082386,-0.0029462,0.033656,0.0048347,0.011547,-0.0014726,0,0,0.057482,-0.017452,0,-0.0076573,0,0,0,0.033733,0.0047578,0.011547,-2.9193,0.016679,0.026248,7.2354e-07,0.16,0.78,0
0.0088166,-0.0030704,0.033847,0.0045005,0.011504,-0.0012264,0,0,0.058092,-0.01821,0,-0.0063772,0,0,0,0.0339,0.0044477,0.011504,-2.3902,0.016617,0.026635,7.4578e-07,0.17,0.78,0
0.0094004,-0.0031871,0.034036,0.0042113,0.011474,-0.00098896,0,0,0.05866,-0.018883,0,-0.0051426,0,0,0,0.03407,0.004177,0.011474,-1.898,0.016574,0.026995,7.6705e-07,0.18,0.78,0
0.0099898,-0.0032969,0.034219,0.003975,0.011458,-0.00076369,0,0,0.059177,-0.019456,0,-0.0039712,0,0,0,0.034239,0.0039544,0.011458,-1.4459,0.016551,0.027317,7.8685e-07,0.19,0.78,0
0.010584,-0.0034007,0.034392,0.003802,0.011458,-0.00055419,0,0,0.059628,-0.019906,0,-0.0028818,0,0,0,0.034403,0.0037908,0.011458,-1.0373,0.016551,0.02759,8.0446e-07,0.2,0.78,0
0.011182,-0.0034992,0.034549,0.0037051,0.011476,-0.00036437,0,0,0.05999,-0.020205,0,-0.0018947,0,0,0,0.034555,0.0036999,0.011476,-0.67605,0.016577,0.027795,8.1881e-07,0.21,0.78,0
0.011784,-0.0035936,0.034681,0.0037004,0.011514,-0.00019855,0,0,0.060233,-0.020316,0,-0.0010325,0,0,0,0.034683,0.0036985,0.011514,-0.3662,0.016632,0.02791,8.2847e-07,0.22,0.78,0
0.012387,-0.0036849,0.034773,0.0038074,0.011574,-6.1399e-05,0,0,0.060318,-0.020194,0,-0.00031928,0,0,0,0.034774,0.0038069,0.011574,-0.1125,0.016718,0.027906,8.3153e-07,0.23,0.78,0
0.01299,-0.0037745,0.034811,0.0040472,0.011657,4.3009e-05,0,0,0.060199,-0.019786,0,0.00022365,0,0,0,0.034811,0.004047,0.011657,0.081052,0.016838,0.027753,8.2589e-07,0.24,0.78,0
0.013591,-0.0038638,0.034782,0.0044367,0.011766,0.00011362,0,0,0.059843,-0.019055,0,0.00059085,0,0,0,0.034783,0.0044361,0.011766,0.21504,0.016995,0.027427,8.0998e-07,0.25,0.78,0
0.014187,-0.0039539,0.03469,0.0049704,0.011898,0.00015577,0,0,0.059259,-0.018012,0,0.00080999,0,0,0,0.034691,0.0049693,0.011898,0.30026,0.017186,0.026935,7.8416e-07,0.26,0.78,0
0.014776,-0.0040455,0.034556,0.00453,0.011726,0.00018443,0,0,0.055357,-0.016773,0,0.00089075,0,0,0,0.034557,0.0045284,0.011726,0.35219,0.016937,0.027177,7.8485e-07,0.27,0.78,0
0.015294,-0.0041401,0.034424,0.0019668,0.010917,0.00022233,0,0,0.04514,-0.015667,0,0.00083808,0,0,0,0.034426,0.0019649,0.010917,0.39289,0.015769,0.029086,8.5384e-07,0.28,0.78,0
0.015679,-0.0042381,0.034337,-0.00070761,0.010089,0.00027279,0,0,0.035155,-0.015003,0,0.00078018,0,0,0,0.03434,-0.0007099,0.010089,0.44582,0.014573,0.03111,9.3331e-07,0.29,0.78,0
0.015997,-0.0043376,0.034305,-0.001471,0.0098502,0.00030523,0,0,0.031791,-0.014718,0,0.0007936,0,0,0,0.034308,-0.0014737,0.0098502,0.48887,0.014228,0.031676,9.5704e-07,0.3,0.78,0
0.016315,-0.0044381,0.03432,-0.0013565,0.0098891,0.00029478,0,0,0.03176,-0.014619,0,0.00076643,0,0,0,0.034323,-0.001359,0.0098891,0.47344,0.014284,0.031597,9.5526e-07,0.31,0.78,0
0.016632,-0.0045402,0.034362,-0.001316,0.009914,0.00024718,0,0,0.031783,-0.014599,0,0.00064266,0,0,0,0.034364,-0.0013178,0.009914,0.39699,0.01432,0.031601,9.5762e-07,0.32,0.78,0
0.01695,-0.0046447,0.034405,-0.0012787,0.0099379,0.0001809,0,0,0.031807,-0.014582,0,0.00047035,0,0,0,0.034406,-0.0012797,0.0099379,0.29047,0.014355,0.031607,9.6006e-07,0.33,0.78,0
0.017269,-0.0047517,0.034433,-0.001219,0.0099643,0.00011017,0,0,0.03181,-0.014538,0,0.00028645,0,0,0,0.034434,-0.0012194,0.0099643,0.17698,0.014393,0.031583,9.6075e-07,0.34,0.78,0
0.017587,-0.0048613,0.034447,-0.0011339,0.0099938,4.1754e-05,0,0,0.031789,-0.014466,0,0.00010856,0,0,0,0.034447,-0.001134,0.0099938,0.067104,0.014436,0.031526,9.5953e-07,0.35,0.78,0
0.017904,-0.0049734,0.03445,-0.0010269,0.010027,-2.1913e-05,0,0,0.03175,-0.01437,0,-5.6974e-05,0,0,0,0.03445,-0.001027,0.010027,-0.035552,0.014483,0.031443,9.5694e-07,0.36,0.78,0
0.018222,-0.0050877,0.03445,-0.00090328,0.010064,-8.0217e-05,0,0,0.031702,-0.014257,0,-0.00020856,0,0,0,0.03445,-0.0009035,0.010064,-0.13017,0.014537,0.031344,9.5356e-07,0.37,0.78,0
0.018538,-0.005204,0.03445,-0.0007683,0.010104,-0.00013333,0,0,0.031649,-0.014135,0,-0.00034665,0,0,0,0.03445,-0.00076885,0.010104,-0.21706,0.014595,0.031236,9.4987e-07,0.38,0.78,0
0.018855,-0.005322,0.034452,-0.00062686,0.010148,-0.00018174,0,0,0.031596,-0.014007,0,-0.00047251,0,0,0,0.034453,-0.00062783,0.010148,-0.29698,0.014658,0.031125,9.462e-07,0.39,0.78,0
0.01917,-0.0054416,0.034459,-0.0004829,0.010193,-0.00022594,0,0,0.031546,-0.013878,0,-0.00058745,0,0,0,0.03446,-0.00048439,0.010193,-0.37061,0.014723,0.031016,9.4277e-07,0.4,0.78,0
0.019486,-0.0055625,0.03447,-0.00033952,0.010239,-0.00026618,0,0,0.0315,-0.013752,0,-0.00069207,0,0,0,0.034472,-0.00034158,0.010239,-0.43822,0.01479,0.030913,9.397e-07,0.41,0.78,0
0.0198,-0.0056844,0.034486,-0.00019922,0.010286,-0.00030233,0,0,0.03146,-0.013631,0,-0.00078607,0,0,0,0.034489,-0.00020188,0.010286,-0.49948,0.014858,0.030816,9.3708e-07,0.42,0.78,0
0.020115,-0.0058071,0.034507,-6.415e-05,0.010333,-0.00033393,0,0,0.031426,-0.013516,0,-0.00086822,0,0,0,0.03451,-6.7397e-05,0.010333,-0.55347,0.014925,0.030727,9.3496e-07,0.43,0.78,0
0.020429,-0.0059303,0.034532,6.3639e-05,0.010379,-0.00036027,0,0,0.031399,-0.01341,0,-0.0009367,0,0,0,0.034536,5.9853e-05,0.010379,-0.59887,0.014991,0.030648,9.3336e-07,0.44,0.78,0
0.020743,-0.0060537,0.034562,0.00018209,0.010423,-0.00038057,0,0,0.03138,-0.013313,0,-0.00098949,0,0,0,0.034566,0.00017786,0.010423,-0.63422,0.015056,0.030581,9.3235e-07,0.45,0.78,0
0.021056,-0.0061772,0.034596,0.00028911,0.010466,-0.00039412,0,0,0.03137,-0.013229,0,-0.0010247,0,0,0,0.034601,0.00028456,0.010466,-0.65817,0.015117,0.030527,9.32e-07,0.46,0.78,0
0.02137,-0.0063004,0.034635,0.00038264,0.010505,-0.00040037,0,0,0.031368,-0.013159,0,-0.001041,0,0,0,0.034639,0.00037793,0.010505,-0.66967,0.015174,0.030487,9.3238e-07,0.47,0.78,0
0.021684,-0.0064231,0.034678,0.00046071,0.010542,-0.00039904,0,0,0.031378,-0.013105,0,-0.0010375,0,0,0,0.034683,0.00045602,0.010542,-0.66813,0.015227,0.030463,9.3358e-07,0.48,0.78,0
0.021998,-0.0065449,0.034727,0.00052157,0.010575,-0.00039013,0,0,0.031398,-0.013069,0,-0.0010143,0,0,0,0.034731,0.00051708,0.010575,-0.65347,0.015274,0.030457,9.3567e-07,0.49,0.78,0
0.022312,-0.0066657,0.03478,0.0005638,0.010603,-0.0003739,0,0,0.03143,-0.013051,0,-0.00097213,0,0,0,0.034784,0.00055966,0.010603,-0.62611,0.015316,0.030471,9.387e-07,0.5,0.78,0
0.022626,-0.0067852,0.034838,0.00058634,0.010627,-0.00035083,0,0,0.031474,-0.013053,0,-0.00091215,0,0,0,0.034842,0.00058268,0.010627,-0.58691,0.015351,0.030504,9.4271e-07,0.51,0.78,0
0.022941,-0.0069032,0.034901,0.00058854,0.010647,-0.00032159,0,0,0.03153,-0.013076,0,-0.00083614,0,0,0,0.034904,0.00058545,0.010647,-0.53713,0.015379,0.030556,9.4766e-07,0.52,0.78,0
0.023257,-0.0070194,0.034966,0.00057019,0.010661,-0.00028701,0,0,0.031596,-0.013118,0,-0.00074621,0,0,0,0.034968,0.0005677,0.010661,-0.47827,0.015399,0.030628,9.535e-07,0.53,0.78,0
0.023573,-0.0071337,0.035032,0.00053138,0.010669,-0.00024797,0,0,0.031672,-0.013179,0,-0.00064472,0,0,0,0.035034,0.00052951,0.010669,-0.41204,0.015411,0.030716,9.6008e-07,0.54,0.78,0
0.02389,-0.0072459,0.035097,0.00047231,0.010671,-0.00020545,0,0,0.031754,-0.013258,0,-0.00053418,0,0,0,0.035098,0.000471,0.010671,-0.34026,0.015413,0.03082,9.6722e-07,0.55,0.78,0
0.024208,-0.0073559,0.035157,0.00039283,0.010665,-0.00016053,0,0,0.03184,-0.013354,0,-0.00041737,0,0,0,0.035158,0.000392,0.010665,-0.26487,0.015405,0.030936,9.7462e-07,0.56,0.78,0
0.024527,-0.0074635,0.035208,0.00029184,0.01065,-0.00011431,0,0,0.031925,-0.013465,0,-0.00029721,0,0,0,0.035208,0.00029139,0.01065,-0.18789,0.015383,0.031061,9.8195e-07,0.57,0.78,0
0.024847,-0.0075685,0.035245,0.00016638,0.010624,-6.7254e-05,0,0,0.032009,-0.013594,0,-0.00017486,0,0,0,0.035246,0.0001662,0.010624,-0.11014,0.015345,0.031194,9.8893e-07,0.58,0.78,0
0.025167,-0.0076709,0.035272,7.3382e-06,0.010584,-1.6905e-05,0,0,0.032095,-0.01375,0,-4.3952e-05,0,0,0,0.035273,7.2828e-06,0.010584,-0.027783,0.015288,0.031345,9.9603e-07,0.59,0.78,0
0.025489,-0.0077703,0.035305,-0.00021676,0.010526,4.4573e-05,0,0,0.032212,-0.013966,0,0.00011589,0,0,0,0.035305,-0.0002169,0.010526,0.071328,0.015205,0.031553,1.0055e-06,0.6,0.78,0
0.025812,-0.0078663,0.035371,-0.00058209,0.010437,0.00012584,0,0,0.032415,-0.014324,0,0.00032718,0,0,0,0.035372,-0.00058275,0.010437,0.19926,0.015075,0.031906,1.0221e-06,0.61,0.78,0
0.026137,-0.0079584,0.035486,-0.00011751,0.010611,0.00022337,0,0,0.036106,-0.014933,0,0.00070975,0,0,0,0.035488,-0.00011961,0.010611,0.36858,0.015326,0.031657,1.0121e-06,0.62,0.78,0
0.026534,-0.0080439,0.035658,0.0022628,0.011376,0.00031518,0,0,0.046718,-0.016038,0,0.0013289,0,0,0,0.035662,0.0022585,0.011376,0.56081,0.016432,0.029951,9.4219e-07,0.63,0.78,0
0.027071,-0.0081198,0.03588,0.0045308,0.012123,0.00037608,0,0,0.057651,-0.017768,0,0.0018735,0,0,0,0.035886,0.0045251,0.012123,0.69465,0.017511,0.028357,8.8582e-07,0.64,0.78,0
0.027687,-0.0081884,0.0361,0.004618,0.012215,0.00039922,0,0,0.0621,-0.019753,0,0.0020759,0,0,0,0.036106,0.0046122,0.012215,0.72541,0.017645,0.028466,9.057e-07,0.65,0.78,0
0.028313,-0.0082528,0.036267,0.003681,0.011984,0.00039702,0,0,0.063135,-0.021589,0,0.0020645,0,0,0,0.036272,0.0036759,0.011984,0.69779,0.017311,0.02934,9.5477e-07,0.66,0.78,0
0.028949,-0.0083141,0.036362,0.0028685,0.011769,0.00038701,0,0,0.063942,-0.023142,0,0.0020124,0,0,0,0.036367,0.002864,0.011769,0.66206,0.017,0.030057,9.9282e-07,0.67,0.78,0
0.029592,-0.0083724,0.036383,0.0021897,0.011572,0.00038059,0,0,0.064509,-0.024394,0,0.0019791,0,0,0,0.036387,0.0021854,0.011572,0.63786,0.016715,0.030608,1.0192e-06,0.68,0.78,0
0.03024,-0.008428,0.036342,0.0016294,0.011391,0.00038128,0,0,0.064871,-0.025381,0,0.0019826,0,0,0,0.036346,0.0016251,0.011391,0.62948,0.016454,0.031014,1.0354e-06,0.69,0.78,0
0.03089,-0.0084807,0.036257,0.0011679,0.011227,0.0003883,0,0,0.065076,-0.026155,0,0.0020192,0,0,0,0.036261,0.0011634,0.011227,0.63422,0.016217,0.031304,1.0439e-06,0.7,0.78,0
0.031541,-0.0085305,0.036143,0.00078698,0.011079,0.00039968,0,0,0.065166,-0.026759,0,0.0020783,0,0,0,0.036147,0.00078222,0.011079,0.64789,0.016003,0.031505,1.0467e-06,0.71,0.78,0
0.032193,-0.0085772,0.036012,0.00047143,0.010945,0.00041349,0,0,0.065174,-0.027231,0,0.0021502,0,0,0,0.036017,0.00046634,0.010945,0.6668,0.015809,0.03164,1.0457e-06,0.72,0.78,0
0.032845,-0.0086208,0.035872,0.00020904,0.010824,0.00042819,0,0,0.065124,-0.0276,0,0.0022266,0,0,0,0.035877,0.0002036,0.010824,0.68811,0.015635,0.031726,1.0419e-06,0.73,0.78,0
0.033495,-0.0086615,0.035729,-9.9387e-06,0.010716,0.00044258,0,0,0.065035,-0.027887,0,0.0023014,0,0,0,0.035735,-1.5717e-05,0.010716,0.70971,0.015478,0.031775,1.0364e-06,0.74,0.78,0
0.034145,-0.0086991,0.035587,-0.00019321,0.010618,0.00045579,0,0,0.064919,-0.028109,0,0.0023701,0,0,0,0.035593,-0.0001993,0.010618,0.73005,0.015337,0.031795,1.0298e-06,0.75,0.78,0
0.034794,-0.0087339,0.035448,-0.00034691,0.01053,0.00046718,0,0,0.064786,-0.028281,0,0.0024293,0,0,0,0.035454,-0.00035328,0.01053,0.74797,0.015211,0.031795,1.0224e-06,0.76,0.78,0
0.035441,-0.0087659,0.035314,-0.00047598,0.010451,0.00047628,0,0,0.064643,-0.028411,0,0.0024767,0,0,0,0.035321,-0.00048257,0.010451,0.76264,0.015096,0.03178,1.0148e-06,0.77,0.78,0
0.036087,-0.0087952,0.035186,-0.00058442,0.01038,0.00048277,0,0,0.064494,-0.028508,0,0.0025104,0,0,0,0.035192,-0.00059115,0.01038,0.77343,0.014994,0.031753,1.007e-06,0.78,0.78,0
0.036731,-0.008822,0.035064,-0.00067546,0.010316,0.00048641,0,0,0.064343,-0.028579,0,0.0025293,0,0,0,0.035071,-0.00068228,0.010316,0.77993,0.014902,0.031718,9.9927e-07,0.79,0.78,0
0.037373,-0.0088464,0.034949,-0.0007518,0.010259,0.00048708,0,0,0.064193,-0.028628,0,0.0025328,0,0,0,0.034956,-0.00075863,0.010259,0.78183,0.014819,0.031677,9.917e-07,0.8,0.78,0
0.038015,-0.0088684,0.034841,-0.00081568,0.010207,0.0004847,0,0,0.064046,-0.02866,0,0.0025205,0,0,0,0.034847,-0.00082243,0.010207,0.77897,0.014744,0.031632,9.8438e-07,0.81,0.78,0
0.038654,-0.0088884,0.034739,-0.00086896,0.010161,0.00047927,0,0,0.063903,-0.028678,0,0.0024922,0,0,0,0.034746,-0.00087555,0.010161,0.77127,0.014677,0.031584,9.7735e-07,0.82,0.78,0
0.039293,-0.0089063,0.034645,-0.00091323,0.010119,0.00047081,0,0,0.063766,-0.028685,0,0.0024482,0,0,0,0.034651,-0.00091959,0.010119,0.75873,0.014617,0.031535,9.7066e-07,0.83,0.78,0
0.03993,-0.0089224,0.034557,-0.00094984,0.010082,0.00045941,0,0,0.063634,-0.028683,0,0.0023889,0,0,0,0.034563,-0.00095589,0.010082,0.74141,0.014563,0.031486,9.6434e-07,0.84,0.78,0
0.040565,-0.0089367,0.034476,-0.00097994,0.010049,0.00044515,0,0,0.06351,-0.028674,0,0.0023148,0,0,0,0.034481,-0.00098562,0.010049,0.71944,0.014515,0.031437,9.5839e-07,0.85,0.78,0
0.0412,-0.0089494,0.034401,-0.0010045,0.010019,0.00042816,0,0,0.063393,-0.028661,0,0.0022265,0,0,0,0.034406,-0.0010098,0.010019,0.69297,0.014472,0.03139,9.5283e-07,0.86,0.78,0
0.041833,-0.0089607,0.034332,-0.0010245,0.0099922,0.0004086,0,0,0.063283,-0.028643,0,0.0021247,0,0,0,0.034337,-0.0010293,0.0099922,0.66222,0.014433,0.031344,9.4766e-07,0.87,0.78,0
0.042466,-0.0089706,0.034269,-0.0010405,0.0099685,0.00038661,0,0,0.063181,-0.028623,0,0.0020104,0,0,0,0.034273,-0.0010448,0.0099685,0.62742,0.014399,0.0313,9.4289e-07,0.88,0.78,0
0.043097,-0.0089793,0.034212,-0.0010532,0.0099476,0.00036236,0,0,0.063087,-0.028602,0,0.0018843,0,0,0,0.034216,-0.001057,0.0099476,0.58882,0.014369,0.031258,9.3851e-07,0.89,0.78,0
0.043727,-0.0089869,0.03416,-0.0010633,0.0099291,0.00033604,0,0,0.063001,-0.02858,0,0.0017474,0,0,0,0.034163,-0.0010665,0.0099291,0.5467,0.014342,0.03122,9.3453e-07,0.9,0.78,0
0.044357,-0.0089934,0.034114,-0.0010711,0.0099129,0.00030783,0,0,0.062923,-0.028558,0,0.0016007,0,0,0,0.034117,-0.0010738,0.0099129,0.50135,0.014319,0.031184,9.3094e-07,0.91,0.78,0
0.044986,-0.008999,0.034073,-0.001077,0.0098989,0.00027791,0,0,0.062854,-0.028537,0,0.0014451,0,0,0,0.034076,-0.0010793,0.0098989,0.45308,0.014298,0.031152,9.2775e-07,0.92,0.78,0
0.045614,-0.0090038,0.034038,-0.0010816,0.0098868,0.00024648,0,0,0.062792,-0.028518,0,0.0012817,0,0,0,0.034039,-0.0010833,0.0098868,0.40219,0.014281,0.031123,9.2493e-07,0.93,0.78,0
0.046242,-0.0090077,0.034007,-0.0010849,0.0098766,0.00021372,0,0,0.062739,-0.0285,0,0.0011113,0,0,0,0.034008,-0.0010862,0.0098766,0.34901,0.014266,0.031098,9.2251e-07,0.94,0.78,0
0.046869,-0.009011,0.033981,-0.0010873,0.0098682,0.00017983,0,0,0.062694,-0.028484,0,0.0009351,0,0,0,0.033982,-0.0010883,0.0098682,0.29386,0.014254,0.031076,9.2046e-07,0.95,0.78,0
0.047496,-0.0090136,0.03396,-0.001089,0.0098614,0.00014499,0,0,0.062657,-0.028471,0,0.00075395,0,0,0,0.033961,-0.0010897,0.0098614,0.23707,0.014244,0.031059,9.1878e-07,0.96,0.78,0
0.048122,-0.0090155,0.033944,-0.0010902,0.0098562,0.0001094,0,0,0.062629,-0.028461,0,0.00056888,0,0,0,0.033945,-0.0010906,0.0098562,0.17895,0.014237,0.031045,9.1749e-07,0.97,0.78,0
0.048748,-0.0090169,0.033933,-0.001091,0.0098525,7.3247e-05,0,0,0.062608,-0.028453,0,0.00038088,0,0,0,0.033933,-0.0010911,0.0098525,0.11985,0.014231,0.031035,9.1656e-07,0.98,0.78,0
0.049374,-0.0090177,0.033926,-0.0010914,0.0098503,3.5422e-05,0,0,0.062596,-0.028448,0,0.00018419,0,0,0,0.033926,-0.0010914,0.0098503,0.057971,0.014228,0.031029,9.16e-07,0.99,0.78,0
0.049687,-0.009018,0.033923,-0.0010915,0.0098496,1.5791e-05,0,0,0.062592,-0.028447,0,8.2115e-05,0,0,0,0.033923,-0.0010915,0.0098496,0.025848,0.014227,0.031027,9.1582e-07,1,0.78,0
0.00022696,-0.00011378,0.030523,0.012746,0.012981,-0.00437,0,0,0.04561,-0.00060991,0,-0.022724,0,0,0,0.03154,0.011729,0.012981,-13.09,0.01875,0.019217,3.5925e-07,0,0.79,0
0.0004561,-0.00022752,0.030568,0.012429,0.012899,-0.0043593,0,0,0.045939,-0.0012227,0,-0.022668,0,0,0,0.031563,0.011434,0.012899,-12.84,0.018632,0.019439,3.7005e-07,0.01,0.79,0
0.00091877,-0.0004547,0.03073,0.011822,0.012766,-0.0043262,0,0,0.046708,-0.0024536,0,-0.022496,0,0,0,0.031675,0.010877,0.012766,-12.301,0.018439,0.019922,3.939e-07,0.02,0.79,0
0.0013903,-0.00068074,0.030967,0.011242,0.012663,-0.0042678,0,0,0.047591,-0.003694,0,-0.022192,0,0,0,0.031853,0.010356,0.012663,-11.706,0.01829,0.020443,4.2005e-07,0.03,0.79,0
0.0018706,-0.00090463,0.031203,0.010659,0.012559,-0.0041821,0,0,0.048477,-0.00494,0,-0.021747,0,0,0,0.032024,0.0098378,0.012559,-11.082,0.01814,0.02096,4.4626e-07,0.04,0.79,0
0.0023598,-0.0011254,0.03144,0.010075,0.012454,-0.0040697,0,0,0.049362,-0.0061862,0,-0.021162,0,0,0,0.032191,0.0093239,0.012454,-10.434,0.01799,0.021475,4.7246e-07,0.05,0.79,0
0.0028578,-0.001342,0.031674,0.0094945,0.012351,-0.0039316,0,0,0.050241,-0.0074259,0,-0.020444,0,0,0,0.032353,0.0088158,0.012351,-9.7663,0.01784,0.021985,4.9859e-07,0.06,0.79,0
0.0033646,-0.0015536,0.031906,0.0089201,0.012248,-0.0037695,0,0,0.051111,-0.0086521,0,-0.019602,0,0,0,0.032511,0.0083153,0.012248,-9.0852,0.017691,0.02249,5.2456e-07,0.07,0.79,0
0.00388,-0.0017594,0.032134,0.0083555,0.012147,-0.0035854,0,0,0.051967,-0.0098576,0,-0.018644,0,0,0,0.032665,0.0078242,0.012147,-8.3963,0.017545,0.022988,5.5032e-07,0.08,0.79,0
0.0044039,-0.0019584,0.032358,0.0078041,0.012049,-0.0033818,0,0,0.052804,-0.011036,0,-0.017585,0,0,0,0.032818,0.0073445,0.012049,-7.7055,0.017404,0.023478,5.7581e-07,0.09,0.79,0
0.0049361,-0.0021502,0.032577,0.0072694,0.011954,-0.0031615,0,0,0.053621,-0.01218,0,-0.01644,0,0,0,0.032969,0.006878,0.011954,-7.0186,0.017267,0.02396,6.0102e-07,0.1,0.79,0
0.0054764,-0.002334,0.032792,0.0067544,0.011864,-0.0029275,0,0,0.054413,-0.013285,0,-0.015223,0,0,0,0.033119,0.0064269,0.011864,-6.3411,0.017137,0.024433,6.2592e-07,0.11,0.79,0
0.0060244,-0.0025095,0.033002,0.0062621,0.011779,-0.0026832,0,0,0.05518,-0.014345,0,-0.013953,0,0,0,0.033271,0.0059932,0.011779,-5.6779,0.017015,0.024895,6.5049e-07,0.12,0.79,0
0.00658,-0.0026763,0.033209,0.0057955,0.011701,-0.0024319,0,0,0.05592,-0.015355,0,-0.012646,0,0,0,0.033425,0.0055793,0.011701,-5.034,0.016902,0.025346,6.7473e-07,0.13,0.79,0
0.0071428,-0.0028343,0.033413,0.0053579,0.011631,-0.0021767,0,0,0.056632,-0.016311,0,-0.011319,0,0,0,0.033583,0.0051879,0.011631,-4.4134,0.016801,0.025785,6.9862e-07,0.14,0.79,0
0.0077126,-0.0029834,0.033613,0.0049526,0.01157,-0.0019209,0,0,0.057313,-0.017205,0,-0.0099886,0,0,0,0.033744,0.0048224,0.01157,-3.8198,0.016712,0.026208,7.2208e-07,0.15,0.79,0
0.0082891,-0.0031237,0.033812,0.0045837,0.011519,-0.0016674,0,0,0.057963,-0.018031,0,-0.0086704,0,0,0,0.033909,0.0044871,0.011519,-3.2565,0.016638,0.026612,7.4501e-07,0.16,0.79,0
0.0088718,-0.0032554,0.034008,0.0042564,0.011479,-0.001419,0,0,0.058575,-0.01878,0,-0.0073786,0,0,0,0.034077,0.0041871,0.011479,-2.7259,0.016581,0.026994,7.6721e-07,0.17,0.79,0
0.0094606,-0.0033787,0.034201,0.0039767,0.011453,-0.001178,0,0,0.059144,-0.019439,0,-0.0061257,0,0,0,0.034249,0.0039292,0.011453,-2.2296,0.016544,0.027345,7.8836e-07,0.18,0.79,0
0.010055,-0.0034942,0.034389,0.0037526,0.011442,-0.00094661,0,0,0.05966,-0.019993,0,-0.0049224,0,0,0,0.034419,0.0037219,0.011442,-1.7686,0.016528,0.027658,8.0797e-07,0.19,0.79,0
0.010654,-0.0036024,0.034567,0.0035942,0.011448,-0.00072633,0,0,0.060108,-0.02042,0,-0.0037769,0,0,0,0.034585,0.0035759,0.011448,-1.3426,0.016536,0.027918,8.2531e-07,0.2,0.79,0
0.011257,-0.0037037,0.034728,0.0035144,0.011473,-0.00051824,0,0,0.060464,-0.020692,0,-0.0026948,0,0,0,0.034738,0.0035047,0.011473,-0.95035,0.016572,0.02811,8.3933e-07,0.21,0.79,0
0.011863,-0.0037989,0.034864,0.0035292,0.011518,-0.00032286,0,0,0.0607,-0.020771,0,-0.0016789,0,0,0,0.034868,0.003525,0.011518,-0.58923,0.016637,0.028209,8.4854e-07,0.22,0.79,0
0.012471,-0.0038887,0.03496,0.003658,0.011585,-0.00014054,0,0,0.060774,-0.020611,0,-0.00073083,0,0,0,0.034961,0.0036568,0.011585,-0.25581,0.016734,0.028189,8.5104e-07,0.23,0.79,0
0.013079,-0.0039739,0.035,0.0039225,0.011677,2.7269e-05,0,0,0.06064,-0.020161,0,0.0001418,0,0,0,0.035,0.0039221,0.011677,0.052009,0.016866,0.028018,8.4464e-07,0.24,0.79,0
0.013684,-0.0040555,0.034971,0.0043403,0.011793,0.00017508,0,0,0.060261,-0.019378,0,0.00091043,0,0,0,0.034972,0.0043388,0.011793,0.32922,0.017035,0.02767,8.2766e-07,0.25,0.79,0
0.014284,-0.0041349,0.034875,0.0049066,0.011935,0.00028997,0,0,0.059646,-0.018273,0,0.0015078,0,0,0,0.034879,0.0049032,0.011935,0.55544,0.017239,0.027152,8.0033e-07,0.26,0.79,0
0.014877,-0.004214,0.034734,0.0044947,0.011769,0.00035604,0,0,0.055688,-0.016962,0,0.0017412,0,0,0,0.034739,0.0044899,0.011769,0.679,0.016999,0.027367,7.9946e-07,0.27,0.79,0
0.015398,-0.0042975,0.034593,0.0019473,0.010962,0.00036925,0,0,0.045385,-0.015789,0,0.0014737,0,0,0,0.034598,0.0019426,0.010962,0.66182,0.015834,0.029256,8.6765e-07,0.28,0.79,0
0.015784,-0.0043887,0.034497,-0.00071103,0.010136,0.00034268,0,0,0.035322,-0.015076,0,0.0010273,0,0,0,0.0345,-0.00071464,0.010136,0.56474,0.01464,0.031257,9.4648e-07,0.29,0.79,0
0.016104,-0.0044851,0.034455,-0.0014502,0.0099014,0.00029629,0,0,0.031919,-0.014757,0,0.00077036,0,0,0,0.034457,-0.0014527,0.0099014,0.47254,0.014302,0.031792,9.6889e-07,0.3,0.79,0
0.016423,-0.0045843,0.03446,-0.0013146,0.0099437,0.00024668,0,0,0.031872,-0.014636,0,0.00064137,0,0,0,0.034462,-0.0013164,0.0099437,0.39512,0.014363,0.031686,9.657e-07,0.31,0.79,0
0.016741,-0.0046861,0.034494,-0.0012619,0.0099697,0.00019982,0,0,0.031882,-0.014601,0,0.00051954,0,0,0,0.034495,-0.001263,0.0099697,0.3203,0.014401,0.031673,9.6703e-07,0.32,0.79,0
0.01706,-0.0047904,0.034528,-0.0012182,0.0099929,0.00015202,0,0,0.031896,-0.014574,0,0.00039526,0,0,0,0.034529,-0.0012189,0.0099929,0.24369,0.014434,0.031667,9.6862e-07,0.33,0.79,0
0.017379,-0.004897,0.034547,-0.0011564,0.010017,9.9691e-05,0,0,0.031889,-0.014526,0,0.0002592,0,0,0,0.034547,-0.0011567,0.010017,0.15991,0.014469,0.031633,9.6847e-07,0.34,0.79,0
0.017698,-0.0050059,0.034549,-0.0010722,0.010043,4.3487e-05,0,0,0.031858,-0.01445,0,0.00011307,0,0,0,0.03455,-0.0010723,0.010043,0.069811,0.014507,0.031568,9.6638e-07,0.35,0.79,0
0.018016,-0.005117,0.034541,-0.00096799,0.010072,-1.4137e-05,0,0,0.03181,-0.014352,0,-3.6757e-05,0,0,0,0.034541,-0.00096804,0.010072,-0.022984,0.014548,0.031477,9.6285e-07,0.36,0.79,0
0.018334,-0.0052301,0.034528,-0.00084782,0.010104,-7.1054e-05,0,0,0.031751,-0.014237,0,-0.00018474,0,0,0,0.034528,-0.00084801,0.010104,-0.11527,0.014595,0.031368,9.5845e-07,0.37,0.79,0
0.018651,-0.0053452,0.034513,-0.0007165,0.010139,-0.00012595,0,0,0.031687,-0.014112,0,-0.00032748,0,0,0,0.034514,-0.000717,0.010139,-0.20503,0.014645,0.031251,9.5366e-07,0.38,0.79,0
0.018968,-0.005462,0.034501,-0.00057862,0.010177,-0.00017811,0,0,0.031621,-0.013982,0,-0.00046308,0,0,0,0.034502,-0.00057956,0.010177,-0.29107,0.0147,0.031129,9.4882e-07,0.39,0.79,0
0.019284,-0.0055803,0.034491,-0.00043817,0.010216,-0.00022705,0,0,0.031558,-0.01385,0,-0.00059033,0,0,0,0.034493,-0.00043968,0.010216,-0.37257,0.014756,0.03101,9.4419e-07,0.4,0.79,0
0.019599,-0.0056999,0.034487,-0.0002985,0.010257,-0.00027237,0,0,0.0315,-0.013722,0,-0.00070816,0,0,0,0.034489,-0.00030066,0.010257,-0.44873,0.014815,0.030895,9.3994e-07,0.41,0.79,0
0.019914,-0.0058205,0.034488,-0.00016237,0.010298,-0.00031358,0,0,0.031447,-0.013598,0,-0.00081532,0,0,0,0.034491,-0.00016523,0.010298,-0.5186,0.014874,0.030788,9.362e-07,0.42,0.79,0
0.020228,-0.0059421,0.034494,-3.2148e-05,0.010339,-0.00035011,0,0,0.031402,-0.013482,0,-0.00091029,0,0,0,0.034498,-3.5718e-05,0.010339,-0.58104,0.014933,0.030691,9.3302e-07,0.43,0.79,0
0.020542,-0.0060642,0.034505,9e-05,0.010379,-0.00038129,0,0,0.031365,-0.013375,0,-0.00099135,0,0,0,0.03451,8.5759e-05,0.010379,-0.63477,0.014991,0.030604,9.3048e-07,0.44,0.79,0
0.020855,-0.0061867,0.034522,0.00020204,0.010417,-0.00040644,0,0,0.031337,-0.01328,0,-0.0010567,0,0,0,0.034527,0.00019721,0.010417,-0.67847,0.015047,0.030531,9.2864e-07,0.45,0.79,0
0.021169,-0.0063093,0.034545,0.00030201,0.010454,-0.00042495,0,0,0.031318,-0.013198,0,-0.0011049,0,0,0,0.03455,0.00029673,0.010454,-0.71096,0.0151,0.030472,9.2756e-07,0.46,0.79,0
0.021482,-0.0064319,0.034573,0.00038807,0.010488,-0.00043636,0,0,0.03131,-0.01313,0,-0.0011345,0,0,0,0.034578,0.00038248,0.010488,-0.73127,0.01515,0.030429,9.273e-07,0.47,0.79,0
0.021795,-0.006554,0.034606,0.00045849,0.010519,-0.00044036,0,0,0.031313,-0.013079,0,-0.0011449,0,0,0,0.034612,0.00045279,0.010519,-0.73877,0.015195,0.030403,9.2793e-07,0.48,0.79,0
0.022108,-0.0066755,0.034646,0.00051177,0.010547,-0.00043684,0,0,0.031328,-0.013046,0,-0.0011358,0,0,0,0.034651,0.00050615,0.010547,-0.73318,0.015235,0.030395,9.295e-07,0.49,0.79,0
0.022421,-0.0067961,0.03469,0.0005467,0.010571,-0.00042588,0,0,0.031355,-0.013032,0,-0.0011073,0,0,0,0.034696,0.00054135,0.010571,-0.7146,0.015269,0.030406,9.3204e-07,0.5,0.79,0
0.022735,-0.0069157,0.03474,0.00056236,0.010591,-0.00040765,0,0,0.031394,-0.013037,0,-0.0010599,0,0,0,0.034745,0.00055745,0.010591,-0.68337,0.015298,0.030438,9.3558e-07,0.51,0.79,0
0.023049,-0.0070339,0.034795,0.00055824,0.010606,-0.00038244,0,0,0.031445,-0.013062,0,-0.00099434,0,0,0,0.034799,0.00055391,0.010606,-0.64006,0.01532,0.030488,9.4007e-07,0.52,0.79,0
0.023364,-0.0071505,0.034852,0.00053417,0.010616,-0.00035055,0,0,0.031507,-0.013106,0,-0.00091142,0,0,0,0.034856,0.00053051,0.010616,-0.58535,0.015334,0.030558,9.4544e-07,0.53,0.79,0
0.023679,-0.0072654,0.034912,0.00049026,0.010621,-0.00031227,0,0,0.031578,-0.013169,0,-0.00081189,0,0,0,0.034915,0.00048734,0.010621,-0.51994,0.015341,0.030644,9.5155e-07,0.54,0.79,0
0.023996,-0.0073784,0.03497,0.00042668,0.010619,-0.00026782,0,0,0.031656,-0.01325,0,-0.00069633,0,0,0,0.034972,0.00042452,0.010619,-0.44443,0.015339,0.030745,9.5822e-07,0.55,0.79,0
0.024313,-0.0074894,0.035024,0.00034327,0.01061,-0.0002173,0,0,0.031738,-0.013347,0,-0.00056499,0,0,0,0.035026,0.00034182,0.01061,-0.35925,0.015326,0.030859,9.6516e-07,0.56,0.79,0
0.02463,-0.007598,0.03507,0.00023891,0.010593,-0.00016071,0,0,0.03182,-0.01346,0,-0.00041784,0,0,0,0.035071,0.00023809,0.010593,-0.26462,0.0153,0.030981,9.7205e-07,0.57,0.79,0
0.024949,-0.0077043,0.035103,0.00011062,0.010564,-9.8657e-05,0,0,0.0319,-0.013589,0,-0.00025651,0,0,0,0.035103,0.00011027,0.010564,-0.16182,0.015259,0.031112,9.7863e-07,0.58,0.79,0
0.025268,-0.0078083,0.035126,-5.0701e-05,0.010523,-3.4831e-05,0,0,0.031984,-0.013745,0,-9.0559e-05,0,0,0,0.035126,-5.0797e-05,0.010523,-0.057038,0.015199,0.031261,9.8538e-07,0.59,0.79,0
0.025589,-0.0079099,0.035155,-0.00027608,0.010464,2.1043e-05,0,0,0.032099,-0.013962,0,5.4713e-05,0,0,0,0.035155,-0.00027614,0.010464,0.033668,0.015114,0.031467,9.9452e-07,0.6,0.79,0
0.02591,-0.0080096,0.035217,-0.00064037,0.010373,5.675e-05,0,0,0.032298,-0.014318,0,0.00014755,0,0,0,0.035218,-0.00064057,0.010373,0.090278,0.014983,0.031815,1.0105e-06,0.61,0.79,0
0.026235,-0.0081078,0.035329,-0.00017247,0.010547,7.1391e-05,0,0,0.035969,-0.01492,0,0.00021966,0,0,0,0.03533,-0.00017304,0.010547,0.11715,0.015235,0.031559,1.0002e-06,0.62,0.79,0
0.02663,-0.0082042,0.035498,0.0022115,0.011313,8.5312e-05,0,0,0.046528,-0.016015,0,0.00036493,0,0,0,0.035499,0.0022104,0.011313,0.15282,0.016341,0.029844,9.3048e-07,0.63,0.79,0
0.027165,-0.008297,0.035718,0.0044843,0.012061,0.00012308,0,0,0.057407,-0.017728,0,0.00062424,0,0,0,0.035719,0.0044827,0.012061,0.22857,0.017421,0.028242,8.7426e-07,0.64,0.79,0
0.027778,-0.0083852,0.035936,0.004578,0.012154,0.00018793,0,0,0.061833,-0.019698,0,0.00097724,0,0,0,0.035938,0.0045761,0.012154,0.34069,0.017556,0.028345,8.9367e-07,0.65,0.79,0
0.028402,-0.0084678,0.036103,0.003647,0.011925,0.0002654,0,0,0.062864,-0.021523,0,0.0013801,0,0,0,0.036106,0.0036445,0.011925,0.46633,0.017225,0.029216,9.422e-07,0.66,0.79,0
0.029035,-0.0085447,0.0362,0.0028386,0.011711,0.00034027,0,0,0.063669,-0.023069,0,0.0017694,0,0,0,0.036203,0.002835,0.011711,0.58295,0.016917,0.029935,9.8004e-07,0.67,0.79,0
0.029675,-0.0086157,0.036222,0.0021626,0.011515,0.0004041,0,0,0.064238,-0.024317,0,0.0021013,0,0,0,0.036227,0.0021578,0.011515,0.67898,0.016633,0.030488,1.0064e-06,0.68,0.79,0
0.03032,-0.0086813,0.036183,0.0016047,0.011336,0.00045527,0,0,0.064602,-0.025303,0,0.0023674,0,0,0,0.036189,0.0015986,0.011336,0.75399,0.016375,0.030896,1.0227e-06,0.69,0.79,0
0.030967,-0.0087418,0.0361,0.0011453,0.011174,0.00049547,0,0,0.064809,-0.026074,0,0.0025765,0,0,0,0.036108,0.0011381,0.011174,0.81203,0.01614,0.031187,1.0314e-06,0.7,0.79,0
0.031616,-0.0087977,0.035989,0.00076652,0.011027,0.00052701,0,0,0.064901,-0.026676,0,0.0027405,0,0,0,0.035997,0.00075839,0.011027,0.85732,0.015927,0.03139,1.0344e-06,0.71,0.79,0
0.032265,-0.0088491,0.03586,0.00045318,0.010894,0.00055177,0,0,0.064911,-0.027146,0,0.0028692,0,0,0,0.035868,0.0004443,0.010894,0.89299,0.015735,0.031526,1.0335e-06,0.72,0.79,0
0.032914,-0.0088965,0.035722,0.00019314,0.010774,0.00057108,0,0,0.064863,-0.027511,0,0.0029696,0,0,0,0.035731,0.00018367,0.010774,0.92108,0.015563,0.031612,1.0299e-06,0.73,0.79,0
0.033563,-0.00894,0.03558,-2.3298e-05,0.010667,0.00058581,0,0,0.064775,-0.027795,0,0.0030462,0,0,0,0.03559,-3.3231e-05,0.010667,0.94284,0.015408,0.03166,1.0244e-06,0.74,0.79,0
0.03421,-0.0089799,0.03544,-0.00020387,0.010571,0.0005965,0,0,0.06466,-0.028014,0,0.0031018,0,0,0,0.03545,-0.00021414,0.010571,0.95897,0.015269,0.03168,1.0179e-06,0.75,0.79,0
0.034856,-0.0090163,0.035302,-0.00035474,0.010484,0.00060352,0,0,0.064527,-0.028181,0,0.0031383,0,0,0,0.035313,-0.00036522,0.010484,0.96985,0.015144,0.031679,1.0106e-06,0.76,0.79,0
0.0355,-0.0090496,0.03517,-0.00048086,0.010407,0.00060705,0,0,0.064384,-0.028307,0,0.0031567,0,0,0,0.03518,-0.00049144,0.010407,0.9757,0.015032,0.031662,1.003e-06,0.77,0.79,0
0.036143,-0.0090799,0.035043,-0.00058626,0.010337,0.00060724,0,0,0.064235,-0.0284,0,0.0031577,0,0,0,0.035053,-0.00059683,0.010337,0.97658,0.014931,0.031634,9.9533e-07,0.78,0.79,0
0.036785,-0.0091073,0.034922,-0.00067423,0.010274,0.00060419,0,0,0.064084,-0.028466,0,0.0031418,0,0,0,0.034932,-0.00068469,0.010274,0.97254,0.014841,0.031597,9.8765e-07,0.79,0.79,0
0.037425,-0.0091322,0.034808,-0.00074749,0.010218,0.00059797,0,0,0.063934,-0.028511,0,0.0031095,0,0,0,0.034818,-0.00075773,0.010218,0.96362,0.01476,0.031554,9.8013e-07,0.8,0.79,0
0.038064,-0.0091545,0.034701,-0.00080831,0.010168,0.00058867,0,0,0.063786,-0.028538,0,0.0030611,0,0,0,0.034711,-0.00081823,0.010168,0.94985,0.014687,0.031507,9.7285e-07,0.81,0.79,0
0.038701,-0.0091746,0.034601,-0.00085858,0.010123,0.00057636,0,0,0.063643,-0.028551,0,0.0029971,0,0,0,0.03461,-0.00086809,0.010123,0.9313,0.014622,0.031458,9.6587e-07,0.82,0.79,0
0.039337,-0.0091926,0.034508,-0.00089993,0.010082,0.00056115,0,0,0.063506,-0.028554,0,0.002918,0,0,0,0.034517,-0.00090894,0.010082,0.90806,0.014563,0.031407,9.5922e-07,0.83,0.79,0
0.039971,-0.0092086,0.034421,-0.00093371,0.010046,0.00054315,0,0,0.063374,-0.028548,0,0.0028244,0,0,0,0.034429,-0.00094216,0.010046,0.88024,0.014511,0.031356,9.5294e-07,0.84,0.79,0
0.040604,-0.0092228,0.034341,-0.00096112,0.010014,0.00052247,0,0,0.06325,-0.028535,0,0.0027169,0,0,0,0.034349,-0.00096894,0.010014,0.84801,0.014465,0.031306,9.4703e-07,0.85,0.79,0
0.041236,-0.0092354,0.034267,-0.00098315,0.0099851,0.00049927,0,0,0.063133,-0.028518,0,0.0025962,0,0,0,0.034274,-0.0009903,0.0099851,0.81154,0.014423,0.031257,9.4151e-07,0.86,0.79,0
0.041867,-0.0092465,0.034199,-0.0010007,0.0099596,0.00047367,0,0,0.063023,-0.028497,0,0.0024631,0,0,0,0.034206,-0.0010071,0.0099596,0.77105,0.014386,0.03121,9.3639e-07,0.87,0.79,0
0.042496,-0.0092562,0.034137,-0.0010144,0.0099369,0.00044585,0,0,0.062922,-0.028474,0,0.0023184,0,0,0,0.034143,-0.0010202,0.0099369,0.72676,0.014353,0.031165,9.3166e-07,0.88,0.79,0
0.043125,-0.0092646,0.034081,-0.0010251,0.0099169,0.00041596,0,0,0.062828,-0.028449,0,0.002163,0,0,0,0.034086,-0.0010301,0.0099169,0.67892,0.014324,0.031122,9.2733e-07,0.89,0.79,0
0.043753,-0.009272,0.034031,-0.0010333,0.0098993,0.00038417,0,0,0.062742,-0.028425,0,0.0019977,0,0,0,0.034035,-0.0010375,0.0098993,0.6278,0.014299,0.031083,9.2339e-07,0.9,0.79,0
0.04438,-0.0092783,0.033986,-0.0010393,0.009884,0.00035065,0,0,0.062665,-0.028401,0,0.0018234,0,0,0,0.033989,-0.0010429,0.009884,0.57367,0.014277,0.031046,9.1985e-07,0.91,0.79,0
0.045006,-0.0092836,0.033946,-0.0010438,0.0098707,0.00031558,0,0,0.062596,-0.028378,0,0.001641,0,0,0,0.033949,-0.0010467,0.0098707,0.51683,0.014258,0.031013,9.1669e-07,0.92,0.79,0
0.045632,-0.0092882,0.033911,-0.001047,0.0098592,0.00027913,0,0,0.062535,-0.028356,0,0.0014515,0,0,0,0.033913,-0.0010492,0.0098592,0.45756,0.014241,0.030984,9.1391e-07,0.93,0.79,0
0.046257,-0.009292,0.033881,-0.0010491,0.0098496,0.00024148,0,0,0.062482,-0.028337,0,0.0012557,0,0,0,0.033883,-0.0010508,0.0098496,0.39615,0.014227,0.030958,9.1151e-07,0.94,0.79,0
0.046882,-0.009295,0.033856,-0.0010506,0.0098416,0.00020279,0,0,0.062437,-0.02832,0,0.0010545,0,0,0,0.033857,-0.0010518,0.0098416,0.33292,0.014216,0.030936,9.0949e-07,0.95,0.79,0
0.047506,-0.0092975,0.033836,-0.0010515,0.0098352,0.00016326,0,0,0.062401,-0.028306,0,0.00084894,0,0,0,0.033836,-0.0010523,0.0098352,0.26817,0.014206,0.030918,9.0785e-07,0.96,0.79,0
0.04813,-0.0092993,0.03382,-0.001052,0.0098303,0.00012304,0,0,0.062373,-0.028294,0,0.0006398,0,0,0,0.03382,-0.0010525,0.0098303,0.2022,0.014199,0.030904,9.0657e-07,0.97,0.79,0
0.048753,-0.0093006,0.033809,-0.0010523,0.0098269,8.2309e-05,0,0,0.062353,-0.028286,0,0.000428,0,0,0,0.033809,-0.0010525,0.0098269,0.13531,0.014194,0.030893,9.0566e-07,0.98,0.79,0
0.049377,-0.0093014,0.033802,-0.0010525,0.0098248,4.0022e-05,0,0,0.06234,-0.028281,0,0.00020811,0,0,0,0.033802,-0.0010525,0.0098248,0.065805,0.014191,0.030887,9.0511e-07,0.99,0.79,0
0.049688,-0.0093017,0.0338,-0.0010525,0.0098241,1.8206e-05,0,0,0.062336,-0.028279,0,9.4673e-05,0,0,0,0.0338,-0.0010525,0.0098241,0.029939,0.01419,0.030885,9.0493e-07,1,0.79,0
0.00022724,-0.00012002,0.030561,0.012746,0.012992,-0.0046104,0,0,0.045678,-0.00063885,0,-0.023974,0,0,0,0.031684,0.011622,0.012992,-13.683,0.018766,0.019414,3.6949e-07,0,0.8,0
0.00045678,-0.00024004,0.030607,0.012414,0.012906,-0.0046001,0,0,0.046022,-0.0012809,0,-0.023921,0,0,0,0.031706,0.011315,0.012906,-13.417,0.018642,0.019646,3.808e-07,0.01,0.8,0
0.00092045,-0.00047982,0.030777,0.011778,0.012767,-0.0045681,0,0,0.046828,-0.0025708,0,-0.023754,0,0,0,0.031821,0.010734,0.012767,-12.847,0.018441,0.020149,4.0583e-07,0.02,0.8,0
0.0013933,-0.00071856,0.031025,0.01117,0.012658,-0.0045104,0,0,0.047753,-0.0038707,0,-0.023454,0,0,0,0.032004,0.010191,0.012658,-12.223,0.018284,0.020691,4.3331e-07,0.03,0.8,0
0.0018755,-0.0009552,0.031272,0.010559,0.012549,-0.0044244,0,0,0.04868,-0.0051756,0,-0.023007,0,0,0,0.03218,0.0096509,0.012549,-11.573,0.018127,0.02123,4.608e-07,0.04,0.8,0
0.0023669,-0.0011887,0.031519,0.0099481,0.01244,-0.0043105,0,0,0.049604,-0.006479,0,-0.022415,0,0,0,0.032351,0.0091162,0.01244,-10.899,0.017969,0.021765,4.8822e-07,0.05,0.8,0
0.0028676,-0.001418,0.031762,0.0093417,0.012331,-0.0041697,0,0,0.050521,-0.0077728,0,-0.021682,0,0,0,0.032515,0.0085888,0.012331,-10.208,0.017812,0.022293,5.1545e-07,0.06,0.8,0
0.0033774,-0.0016421,0.032002,0.0087435,0.012224,-0.0040036,0,0,0.051424,-0.0090487,0,-0.020819,0,0,0,0.032675,0.0080711,0.012224,-9.5045,0.017656,0.022814,5.424e-07,0.07,0.8,0
0.0038961,-0.0018601,0.032237,0.0081576,0.012118,-0.0038147,0,0,0.052309,-0.010298,0,-0.019836,0,0,0,0.03283,0.0075652,0.012118,-8.7958,0.017504,0.023325,5.6897e-07,0.08,0.8,0
0.0044235,-0.0020712,0.032467,0.0075879,0.012016,-0.0036057,0,0,0.053171,-0.011514,0,-0.01875,0,0,0,0.032982,0.0070733,0.012016,-8.0877,0.017357,0.023825,5.9511e-07,0.09,0.8,0
0.0049595,-0.0022745,0.032691,0.007038,0.011919,-0.0033799,0,0,0.054007,-0.01269,0,-0.017575,0,0,0,0.033131,0.0065976,0.011919,-7.3862,0.017216,0.024314,6.2078e-07,0.1,0.8,0
0.0055037,-0.0024695,0.032908,0.0065112,0.011826,-0.0031407,0,0,0.054815,-0.013818,0,-0.016331,0,0,0,0.033279,0.0061402,0.011826,-6.697,0.017082,0.024791,6.4596e-07,0.11,0.8,0
0.0060558,-0.0026557,0.033121,0.0060106,0.011739,-0.0028916,0,0,0.055592,-0.014895,0,-0.015037,0,0,0,0.033428,0.0057032,0.011739,-6.0252,0.016957,0.025254,6.7066e-07,0.12,0.8,0
0.0066155,-0.0028327,0.033328,0.0055391,0.01166,-0.0026363,0,0,0.056337,-0.015915,0,-0.013709,0,0,0,0.033578,0.0052889,0.01166,-5.3752,0.016843,0.025704,6.9488e-07,0.13,0.8,0
0.0071825,-0.0030003,0.033532,0.0050997,0.01159,-0.0023779,0,0,0.05705,-0.016873,0,-0.012365,0,0,0,0.033732,0.0049001,0.01159,-4.751,0.01674,0.026137,7.1859e-07,0.14,0.8,0
0.0077565,-0.0031583,0.033732,0.0046958,0.011528,-0.0021196,0,0,0.05773,-0.017765,0,-0.011022,0,0,0,0.033888,0.0045399,0.011528,-4.1557,0.016652,0.026554,7.4177e-07,0.15,0.8,0
0.0083372,-0.0033068,0.03393,0.004331,0.011478,-0.0018641,0,0,0.058375,-0.018583,0,-0.0096932,0,0,0,0.034049,0.0042122,0.011478,-3.5915,0.01658,0.026949,7.6432e-07,0.16,0.8,0
0.008924,-0.003446,0.034126,0.0040099,0.011441,-0.0016135,0,0,0.058982,-0.01932,0,-0.0083903,0,0,0,0.034214,0.003922,0.011441,-3.0596,0.016526,0.02732,7.8608e-07,0.17,0.8,0
0.0095168,-0.0035758,0.034319,0.0037384,0.011417,-0.0013695,0,0,0.059545,-0.019965,0,-0.0071213,0,0,0,0.034382,0.0036756,0.011417,-2.5601,0.016492,0.027661,8.0678e-07,0.18,0.8,0
0.010115,-0.0036968,0.034508,0.0035236,0.01141,-0.0011327,0,0,0.060056,-0.020503,0,-0.0058902,0,0,0,0.034551,0.0034808,0.01141,-2.0915,0.01648,0.027962,8.2601e-07,0.19,0.8,0
0.010718,-0.0038091,0.03469,0.003375,0.011419,-0.00090299,0,0,0.060503,-0.020916,0,-0.0046955,0,0,0,0.034717,0.0033476,0.011419,-1.6505,0.016495,0.028213,8.4312e-07,0.2,0.8,0
0.011325,-0.0039131,0.034859,0.0033043,0.011449,-0.00067864,0,0,0.060866,-0.021176,0,-0.0035289,0,0,0,0.034875,0.0032885,0.011449,-1.2311,0.016537,0.0284,8.5721e-07,0.21,0.8,0
0.011935,-0.004009,0.035008,0.0033267,0.0115,-0.00045667,0,0,0.061119,-0.021251,0,-0.0023747,0,0,0,0.035015,0.003319,0.0115,-0.82464,0.016612,0.028501,8.6701e-07,0.22,0.8,0
0.012547,-0.0040971,0.035124,0.0034606,0.011575,-0.00023295,0,0,0.061226,-0.021098,0,-0.0012113,0,0,0,0.035126,0.003458,0.011575,-0.41976,0.01672,0.028491,8.7077e-07,0.23,0.8,0
0.01316,-0.0041778,0.035189,0.0037283,0.011675,-4.6984e-06,0,0,0.061137,-0.020662,0,-2.4432e-05,0,0,0,0.03519,0.0037273,0.011675,-0.0059822,0.016864,0.028338,8.6621e-07,0.24,0.8,0
0.01377,-0.0042514,0.035185,0.0041545,0.011802,0.00022219,0,0,0.060795,-0.019883,0,0.0011554,0,0,0,0.035187,0.004152,0.011802,0.41352,0.017047,0.028006,8.5076e-07,0.25,0.8,0
0.014376,-0.0043193,0.035102,0.0047593,0.011958,0.00042044,0,0,0.060173,-0.018717,0,0.0021863,0,0,0,0.035108,0.0047526,0.011958,0.7967,0.017273,0.027472,8.2298e-07,0.26,0.8,0
0.014974,-0.0043848,0.03496,0.0044354,0.011819,0.00053733,0,0,0.056129,-0.017242,0,0.002639,0,0,0,0.034971,0.004425,0.011819,1.017,0.017071,0.027623,8.1909e-07,0.27,0.8,0
0.015498,-0.0044559,0.034814,0.0019962,0.011043,0.00053009,0,0,0.045677,-0.015873,0,0.0021702,0,0,0,0.034823,0.0019864,0.011043,0.95272,0.015951,0.029421,8.8395e-07,0.28,0.8,0
0.015887,-0.0045396,0.034711,-0.0006051,0.010232,0.00042059,0,0,0.035501,-0.015065,0,0.0013029,0,0,0,0.034717,-0.00061089,0.010232,0.69715,0.014779,0.031365,9.6137e-07,0.29,0.8,0
0.016208,-0.0046328,0.034659,-0.0013676,0.0099874,0.00029178,0,0,0.032073,-0.014761,0,0.00075862,0,0,0,0.034661,-0.0013701,0.0099874,0.46358,0.014426,0.031907,9.838e-07,0.3,0.8,0
0.016529,-0.0047308,0.034653,-0.0012751,0.010013,0.00020971,0,0,0.032032,-0.014675,0,0.00054525,0,0,0,0.034654,-0.0012764,0.010013,0.33451,0.014464,0.031825,9.8071e-07,0.31,0.8,0
0.016849,-0.0048322,0.034672,-0.0012315,0.010032,0.00017133,0,0,0.032032,-0.014643,0,0.00044546,0,0,0,0.034673,-0.0012324,0.010032,0.27345,0.014491,0.031806,9.8109e-07,0.32,0.8,0
0.017169,-0.0049361,0.034682,-0.0011767,0.010052,0.00014304,0,0,0.03202,-0.014597,0,0.00037191,0,0,0,0.034683,-0.0011773,0.010052,0.22849,0.014519,0.031771,9.804e-07,0.33,0.8,0
0.017489,-0.0050422,0.034674,-0.0011053,0.01007,0.00010676,0,0,0.031984,-0.014528,0,0.00027758,0,0,0,0.034674,-0.0011057,0.01007,0.17084,0.014546,0.031705,9.7767e-07,0.34,0.8,0
0.017809,-0.0051503,0.034652,-0.0010166,0.010091,6.0707e-05,0,0,0.03193,-0.014439,0,0.00015784,0,0,0,0.034652,-0.0010168,0.010091,0.097347,0.014575,0.031614,9.7344e-07,0.35,0.8,0
0.018128,-0.0052604,0.034625,-0.0009109,0.010114,8.2841e-06,0,0,0.031864,-0.014333,0,2.1539e-05,0,0,0,0.034625,-0.00091096,0.010114,0.013163,0.014609,0.031505,9.6823e-07,0.36,0.8,0
0.018446,-0.0053724,0.034595,-0.00079106,0.010141,-4.7301e-05,0,0,0.03179,-0.014212,0,-0.00012298,0,0,0,0.034595,-0.00079118,0.010141,-0.076794,0.014648,0.031382,9.6243e-07,0.37,0.8,0
0.018764,-0.0054862,0.034565,-0.0006612,0.010171,-0.00010377,0,0,0.031712,-0.014082,0,-0.00026981,0,0,0,0.034566,-0.00066157,0.010171,-0.16899,0.014692,0.031252,9.5639e-07,0.38,0.8,0
0.01908,-0.0056017,0.034538,-0.00052561,0.010204,-0.00015949,0,0,0.031635,-0.013948,0,-0.00041469,0,0,0,0.034539,-0.00052639,0.010204,-0.26081,0.014739,0.03112,9.5039e-07,0.39,0.8,0
0.019396,-0.0057186,0.034515,-0.00038814,0.010238,-0.00021322,0,0,0.03156,-0.013814,0,-0.00055436,0,0,0,0.034516,-0.00038949,0.010238,-0.35017,0.014788,0.03099,9.4468e-07,0.4,0.8,0
0.019712,-0.0058369,0.034497,-0.00025207,0.010273,-0.00026394,0,0,0.031491,-0.013683,0,-0.00068623,0,0,0,0.034499,-0.00025411,0.010273,-0.43532,0.014839,0.030867,9.3942e-07,0.41,0.8,0
0.020026,-0.0059563,0.034485,-0.00012019,0.010309,-0.00031081,0,0,0.031428,-0.013558,0,-0.00080809,0,0,0,0.034488,-0.00012301,0.010309,-0.51469,0.014891,0.030752,9.3472e-07,0.42,0.8,0
0.02034,-0.0060767,0.034478,5.069e-06,0.010345,-0.00035306,0,0,0.031373,-0.013442,0,-0.00091795,0,0,0,0.034482,1.4286e-06,0.010345,-0.58683,0.014943,0.030647,9.3069e-07,0.43,0.8,0
0.020654,-0.0061978,0.034478,0.00012155,0.01038,-0.00038998,0,0,0.031328,-0.013336,0,-0.0010139,0,0,0,0.034483,0.0001171,0.01038,-0.65035,0.014993,0.030555,9.2738e-07,0.44,0.8,0
0.020967,-0.0063193,0.034484,0.00022726,0.010413,-0.00042092,0,0,0.031292,-0.013242,0,-0.0010944,0,0,0,0.034489,0.00022207,0.010413,-0.70394,0.015042,0.030478,9.2485e-07,0.45,0.8,0
0.021279,-0.0064412,0.034496,0.00032035,0.010445,-0.00044532,0,0,0.031267,-0.013162,0,-0.0011578,0,0,0,0.034502,0.00031453,0.010445,-0.74646,0.015087,0.030415,9.2317e-07,0.46,0.8,0
0.021592,-0.006563,0.034515,0.00039911,0.010474,-0.00046271,0,0,0.031253,-0.013098,0,-0.001203,0,0,0,0.034521,0.00039283,0.010474,-0.77696,0.015129,0.03037,9.2239e-07,0.47,0.8,0
0.021905,-0.0066846,0.03454,0.00046202,0.010501,-0.00047277,0,0,0.031251,-0.01305,0,-0.0012292,0,0,0,0.034547,0.00045545,0.010501,-0.79473,0.015168,0.030342,9.2256e-07,0.48,0.8,0
0.022217,-0.0068058,0.034571,0.00050774,0.010524,-0.00047531,0,0,0.031262,-0.013021,0,-0.0012358,0,0,0,0.034578,0.00050109,0.010524,-0.79934,0.015201,0.030334,9.2373e-07,0.49,0.8,0
0.02253,-0.0069264,0.034609,0.00053516,0.010543,-0.00047023,0,0,0.031285,-0.01301,0,-0.0012226,0,0,0,0.034615,0.00052864,0.010543,-0.79057,0.015229,0.030345,9.2593e-07,0.5,0.8,0
0.022843,-0.007046,0.034652,0.00054347,0.010559,-0.00045748,0,0,0.031322,-0.01302,0,-0.0011894,0,0,0,0.034659,0.00053729,0.010559,-0.76838,0.015252,0.030377,9.2916e-07,0.51,0.8,0
0.023156,-0.0071644,0.034701,0.00053214,0.01057,-0.000437,0,0,0.031371,-0.013049,0,-0.0011362,0,0,0,0.034707,0.0005265,0.01057,-0.73274,0.015268,0.030428,9.3342e-07,0.52,0.8,0
0.02347,-0.0072815,0.034755,0.00050098,0.010577,-0.00040868,0,0,0.031432,-0.013099,0,-0.0010626,0,0,0,0.03476,0.00049604,0.010577,-0.68362,0.015278,0.0305,9.3863e-07,0.53,0.8,0
0.023785,-0.0073971,0.034812,0.00045008,0.010579,-0.00037229,0,0,0.031503,-0.013167,0,-0.00096796,0,0,0,0.034816,0.00044597,0.010579,-0.62087,0.01528,0.030589,9.4472e-07,0.54,0.8,0
0.0241,-0.0075109,0.03487,0.0003796,0.010575,-0.00032752,0,0,0.031584,-0.013254,0,-0.00085155,0,0,0,0.034874,0.00037641,0.010575,-0.54423,0.015275,0.030696,9.5155e-07,0.55,0.8,0
0.024417,-0.0076228,0.034929,0.00028933,0.010565,-0.00027384,0,0,0.031672,-0.013359,0,-0.00071199,0,0,0,0.034931,0.00028706,0.010565,-0.45317,0.015261,0.030818,9.5898e-07,0.56,0.8,0
0.024734,-0.0077327,0.034984,0.00017763,0.010549,-0.00021047,0,0,0.031767,-0.013482,0,-0.00054721,0,0,0,0.034986,0.00017624,0.010549,-0.34672,0.015237,0.030955,9.6685e-07,0.57,0.8,0
0.025052,-0.0078403,0.035032,4.0588e-05,0.010522,-0.0001372,0,0,0.031864,-0.013626,0,-0.00035671,0,0,0,0.035033,3.9926e-05,0.010522,-0.22495,0.015198,0.031106,9.7488e-07,0.58,0.8,0
0.025371,-0.0079458,0.035067,-0.00012646,0.010482,-5.9982e-05,0,0,0.031961,-0.013791,0,-0.00015595,0,0,0,0.035068,-0.00012667,0.010482,-0.097961,0.015141,0.03127,9.8273e-07,0.59,0.8,0
0.025691,-0.0080496,0.035099,-0.00033092,0.01043,-2.1696e-06,0,0,0.032069,-0.01399,0,-5.641e-06,0,0,0,0.035099,-0.00033096,0.01043,-0.0036993,0.015066,0.031462,9.9142e-07,0.6,0.8,0
0.026012,-0.0081527,0.035161,-0.00063151,0.010359,-4.1488e-06,0,0,0.032242,-0.014287,0,-1.0787e-05,0,0,0,0.035161,-0.00063163,0.010359,-0.0062552,0.014963,0.031757,1.0054e-06,0.61,0.8,0
0.026336,-0.0082568,0.035269,-0.00011598,0.010546,-7.4527e-05,0,0,0.035887,-0.014841,0,-0.00025749,0,0,0,0.03527,-0.00011672,0.010546,-0.12667,0.015233,0.031461,9.9346e-07,0.62,0.8,0
0.02673,-0.0083642,0.035432,0.0022284,0.011298,-0.00014468,0,0,0.046442,-0.015978,0,-0.0006067,0,0,0,0.035433,0.0022267,0.011298,-0.25891,0.016319,0.029772,9.2479e-07,0.63,0.8,0
0.027265,-0.0084744,0.035645,0.0044122,0.012017,-0.00012859,0,0,0.057344,-0.017812,0,-0.00061958,0,0,0,0.035647,0.0044105,0.012017,-0.2382,0.017358,0.028233,8.7134e-07,0.64,0.8,0
0.027877,-0.0085824,0.035854,0.0044504,0.012091,-1.3032e-05,0,0,0.061783,-0.019867,0,-6.7766e-05,0,0,0,0.035855,0.0044493,0.012091,-0.028472,0.017465,0.02837,8.9181e-07,0.65,0.8,0
0.0285,-0.0086833,0.036002,0.0035174,0.011856,0.00015024,0,0,0.062781,-0.02168,0,0.00078127,0,0,0,0.036004,0.003516,0.011856,0.26093,0.017125,0.029226,9.3854e-07,0.66,0.8,0
0.029133,-0.0087754,0.036072,0.0027326,0.011641,0.00030853,0,0,0.063519,-0.023162,0,0.0016044,0,0,0,0.036075,0.0027294,0.011641,0.52754,0.016815,0.029903,9.7305e-07,0.67,0.8,0
0.029771,-0.0088588,0.036067,0.0020821,0.011445,0.00043764,0,0,0.064019,-0.024343,0,0.0022757,0,0,0,0.036073,0.0020762,0.011445,0.73626,0.016531,0.030415,9.9613e-07,0.68,0.8,0
0.030413,-0.0089341,0.036009,0.0015446,0.011266,0.00053453,0,0,0.064332,-0.025276,0,0.0027795,0,0,0,0.036018,0.0015362,0.011266,0.88781,0.016273,0.030792,1.0101e-06,0.69,0.8,0
0.031057,-0.0090022,0.035915,0.0011008,0.011105,0.00060455,0,0,0.064507,-0.02601,0,0.0031437,0,0,0,0.035926,0.0010901,0.011105,0.99453,0.01604,0.031064,1.0173e-06,0.7,0.8,0
0.031703,-0.009064,0.035799,0.00073361,0.01096,0.00065416,0,0,0.064581,-0.026588,0,0.0034017,0,0,0,0.035811,0.00072114,0.01096,1.0687,0.015831,0.031255,1.0196e-06,0.71,0.8,0
0.032349,-0.0091201,0.035668,0.00042911,0.010829,0.00068867,0,0,0.064582,-0.02704,0,0.0035811,0,0,0,0.035682,0.00041537,0.010829,1.1196,0.015642,0.031384,1.0183e-06,0.72,0.8,0
0.032995,-0.0091711,0.035532,0.00017598,0.010712,0.00071195,0,0,0.064531,-0.027395,0,0.0037022,0,0,0,0.035546,0.00016135,0.010712,1.1537,0.015473,0.031466,1.0146e-06,0.73,0.8,0
0.03364,-0.0092174,0.035393,-3.4852e-05,0.010607,0.0007267,0,0,0.064443,-0.02767,0,0.0037789,0,0,0,0.035408,-5.0043e-05,0.010607,1.1752,0.015322,0.031512,1.0093e-06,0.74,0.8,0
0.034284,-0.0092594,0.035256,-0.00021068,0.010513,0.00073477,0,0,0.06433,-0.027883,0,0.0038208,0,0,0,0.035271,-0.00022617,0.010513,1.1869,0.015186,0.031531,1.003e-06,0.75,0.8,0
0.034926,-0.0092976,0.035122,-0.00035737,0.010429,0.00073738,0,0,0.0642,-0.028045,0,0.0038344,0,0,0,0.035137,-0.00037295,0.010429,1.1907,0.015064,0.031529,9.9593e-07,0.76,0.8,0
0.035568,-0.0093321,0.034992,-0.00047971,0.010354,0.00073539,0,0,0.06406,-0.028167,0,0.003824,0,0,0,0.035008,-0.00049519,0.010354,1.1877,0.014955,0.031512,9.8857e-07,0.77,0.8,0
0.036208,-0.0093633,0.034869,-0.00058159,0.010286,0.00072935,0,0,0.063915,-0.028256,0,0.0037926,0,0,0,0.034884,-0.00059681,0.010286,1.1787,0.014858,0.031483,9.8109e-07,0.78,0.8,0
0.036846,-0.0093913,0.034752,-0.00066623,0.010226,0.00071968,0,0,0.063768,-0.028319,0,0.0037423,0,0,0,0.034766,-0.00068105,0.010226,1.1641,0.01477,0.031446,9.7364e-07,0.79,0.8,0
0.037483,-0.0094166,0.034641,-0.00073632,0.010171,0.00070666,0,0,0.063621,-0.02836,0,0.0036746,0,0,0,0.034655,-0.00075061,0.010171,1.1443,0.014692,0.031403,9.6634e-07,0.8,0.8,0
0.038118,-0.0094392,0.034537,-0.0007941,0.010123,0.0006905,0,0,0.063477,-0.028384,0,0.0035906,0,0,0,0.034551,-0.00080774,0.010123,1.1196,0.014622,0.031356,9.5927e-07,0.81,0.8,0
0.038752,-0.0094594,0.03444,-0.00084146,0.01008,0.0006714,0,0,0.063337,-0.028395,0,0.0034913,0,0,0,0.034453,-0.00085437,0.01008,1.0902,0.014559,0.031307,9.5248e-07,0.82,0.8,0
0.039385,-0.0094774,0.03435,-0.00088002,0.010041,0.00064951,0,0,0.063203,-0.028394,0,0.0033774,0,0,0,0.034362,-0.00089212,0.010041,1.0562,0.014503,0.031256,9.4602e-07,0.83,0.8,0
0.040016,-0.0094933,0.034266,-0.00091116,0.010006,0.00062498,0,0,0.063074,-0.028385,0,0.0032499,0,0,0,0.034277,-0.00092237,0.010006,1.0179,0.014454,0.031205,9.3991e-07,0.84,0.8,0
0.040647,-0.0095074,0.034188,-0.00093605,0.0099756,0.00059796,0,0,0.062952,-0.02837,0,0.0031094,0,0,0,0.034198,-0.00094632,0.0099756,0.97535,0.014409,0.031154,9.3416e-07,0.85,0.8,0
0.041275,-0.0095198,0.034117,-0.00095572,0.0099483,0.00056861,0,0,0.062838,-0.02835,0,0.0029568,0,0,0,0.034126,-0.00096502,0.0099483,0.92885,0.01437,0.031105,9.288e-07,0.86,0.8,0
0.041903,-0.0095306,0.034051,-0.00097103,0.0099241,0.00053707,0,0,0.062731,-0.028327,0,0.0027928,0,0,0,0.03406,-0.00097934,0.0099241,0.87861,0.014335,0.031057,9.2382e-07,0.87,0.8,0
0.04253,-0.0095401,0.033992,-0.00098276,0.0099027,0.0005035,0,0,0.062631,-0.028302,0,0.0026182,0,0,0,0.033999,-0.00099008,0.0099027,0.82484,0.014304,0.031012,9.1922e-07,0.88,0.8,0
0.043156,-0.0095483,0.033938,-0.00099155,0.0098838,0.00046806,0,0,0.06254,-0.028276,0,0.0024339,0,0,0,0.033944,-0.00099788,0.0098838,0.76779,0.014277,0.03097,9.1501e-07,0.89,0.8,0
0.043781,-0.0095554,0.033889,-0.00099797,0.0098673,0.0004309,0,0,0.062456,-0.02825,0,0.0022407,0,0,0,0.033894,-0.0010033,0.0098673,0.70771,0.014253,0.03093,9.1119e-07,0.9,0.8,0
0.044405,-0.0095614,0.033846,-0.0010025,0.0098529,0.00039219,0,0,0.062381,-0.028224,0,0.0020394,0,0,0,0.03385,-0.001007,0.0098529,0.64486,0.014232,0.030893,9.0775e-07,0.91,0.8,0
0.045029,-0.0095666,0.033807,-0.0010056,0.0098405,0.00035208,0,0,0.062313,-0.0282,0,0.0018308,0,0,0,0.033811,-0.0010092,0.0098405,0.57952,0.014214,0.03086,9.0468e-07,0.92,0.8,0
0.045651,-0.0095709,0.033774,-0.0010075,0.0098299,0.00031074,0,0,0.062254,-0.028177,0,0.0016159,0,0,0,0.033777,-0.0010103,0.0098299,0.51195,0.014199,0.030831,9.0199e-07,0.93,0.8,0
0.046274,-0.0095745,0.033745,-0.0010086,0.0098209,0.00026833,0,0,0.062203,-0.028157,0,0.0013953,0,0,0,0.033747,-0.0010107,0.0098209,0.44243,0.014186,0.030805,8.9967e-07,0.94,0.8,0
0.046895,-0.0095774,0.033721,-0.0010092,0.0098135,0.000225,0,0,0.062159,-0.028139,0,0.00117,0,0,0,0.033722,-0.0010107,0.0098135,0.37125,0.014175,0.030783,8.9771e-07,0.95,0.8,0
0.047517,-0.0095797,0.033701,-0.0010094,0.0098076,0.00018091,0,0,0.062124,-0.028124,0,0.00094071,0,0,0,0.033702,-0.0010103,0.0098076,0.29867,0.014167,0.030765,8.9612e-07,0.96,0.8,0
0.048138,-0.0095814,0.033686,-0.0010093,0.0098031,0.00013621,0,0,0.062096,-0.028112,0,0.00070828,0,0,0,0.033687,-0.0010099,0.0098031,0.22497,0.01416,0.030751,8.9488e-07,0.97,0.8,0
0.048759,-0.0095826,0.033675,-0.0010092,0.0097999,9.1056e-05,0,0,0.062077,-0.028104,0,0.00047349,0,0,0,0.033676,-0.0010095,0.0097999,0.15044,0.014155,0.030741,8.94e-07,0.98,0.8,0
0.049379,-0.0095833,0.033669,-0.0010091,0.009798,4.4469e-05,0,0,0.062065,-0.028098,0,0.00023124,0,0,0,0.033669,-0.0010092,0.009798,0.073487,0.014153,0.030734,8.9347e-07,0.99,0.8,0
0.04969,-0.0095836,0.033667,-0.0010091,0.0097973,2.0551e-05,0,0,0.062061,-0.028097,0,0.00010687,0,0,0,0.033667,-0.0010091,0.0097973,0.033967,0.014152,0.030732,8.9329e-07,1,0.8,0
0.00022755,-0.00012655,0.030601,0.012748,0.013005,-0.0048618,0,0,0.04575,-0.00066729,0,-0.025281,0,0,0,0.031841,0.011508,0.013005,-14.287,0.018785,0.019628,3.8072e-07,0,0.81,0
0.0004575,-0.00025314,0.03065,0.0124,0.012915,-0.004852,0,0,0.04611,-0.0013385,0,-0.025231,0,0,0,0.031862,0.011188,0.012915,-14.006,0.018655,0.019868,3.9254e-07,0.01,0.81,0
0.00092221,-0.00050611,0.030827,0.011735,0.012769,-0.004821,0,0,0.046953,-0.002688,0,-0.025069,0,0,0,0.031978,0.010584,0.012769,-13.404,0.018444,0.020391,4.1874e-07,0.02,0.81,0
0.0013966,-0.00075815,0.031085,0.011098,0.012655,-0.0047638,0,0,0.047919,-0.0040489,0,-0.024772,0,0,0,0.032165,0.010018,0.012655,-12.75,0.018279,0.020955,4.4755e-07,0.03,0.81,0
0.0018806,-0.0010081,0.031343,0.010457,0.01254,-0.004677,0,0,0.048887,-0.005415,0,-0.02432,0,0,0,0.032345,0.0094554,0.01254,-12.07,0.018113,0.021515,4.7633e-07,0.04,0.81,0
0.0023743,-0.001255,0.031598,0.0098181,0.012425,-0.0045606,0,0,0.049851,-0.0067777,0,-0.023715,0,0,0,0.032517,0.0088991,0.012425,-11.369,0.017947,0.022069,5.0493e-07,0.05,0.81,0
0.0028776,-0.0014975,0.03185,0.0091845,0.01231,-0.0044158,0,0,0.050803,-0.0081272,0,-0.022962,0,0,0,0.032683,0.008352,0.01231,-10.651,0.017782,0.022614,5.3319e-07,0.06,0.81,0
0.0033904,-0.0017346,0.032096,0.0085614,0.012197,-0.0042443,0,0,0.051738,-0.0094535,0,-0.02207,0,0,0,0.032841,0.0078167,0.012197,-9.9231,0.017618,0.023148,5.6097e-07,0.07,0.81,0
0.0039124,-0.0019653,0.032336,0.0079534,0.012087,-0.0040489,0,0,0.052648,-0.010747,0,-0.021054,0,0,0,0.032994,0.007296,0.012087,-9.1921,0.017459,0.02367,5.8817e-07,0.08,0.81,0
0.0044433,-0.0021887,0.032568,0.007365,0.01198,-0.0038329,0,0,0.05353,-0.011999,0,-0.019931,0,0,0,0.033141,0.0067924,0.01198,-8.4645,0.017305,0.024177,6.147e-07,0.09,0.81,0
0.004983,-0.002404,0.032793,0.0068001,0.011878,-0.0036,0,0,0.054379,-0.013202,0,-0.01872,0,0,0,0.033285,0.0063081,0.011878,-7.7466,0.017157,0.024669,6.4054e-07,0.1,0.81,0
0.0055309,-0.0026104,0.03301,0.006262,0.011782,-0.0033541,0,0,0.055194,-0.014351,0,-0.017441,0,0,0,0.033427,0.0058453,0.011782,-7.0441,0.017018,0.025145,6.6567e-07,0.11,0.81,0
0.0060868,-0.0028074,0.03322,0.0057539,0.011692,-0.003099,0,0,0.055972,-0.015439,0,-0.016115,0,0,0,0.033567,0.0054062,0.011692,-6.3624,0.016889,0.025604,6.901e-07,0.12,0.81,0
0.0066504,-0.0029946,0.033423,0.0052784,0.011611,-0.0028385,0,0,0.056713,-0.016464,0,-0.01476,0,0,0,0.033709,0.0049927,0.011611,-5.7057,0.016771,0.026046,7.1386e-07,0.13,0.81,0
0.0072211,-0.0031718,0.033622,0.0048384,0.011538,-0.0025761,0,0,0.057418,-0.017419,0,-0.013396,0,0,0,0.033853,0.0046075,0.011538,-5.0775,0.016666,0.02647,7.3695e-07,0.14,0.81,0
0.0077987,-0.0033387,0.033817,0.0044367,0.011476,-0.0023149,0,0,0.058086,-0.018302,0,-0.012037,0,0,0,0.034,0.0042534,0.011476,-4.4803,0.016577,0.026874,7.5938e-07,0.15,0.81,0
0.0083828,-0.0034954,0.034009,0.0040764,0.011426,-0.0020572,0,0,0.058716,-0.019108,0,-0.010698,0,0,0,0.034151,0.0039339,0.011426,-3.9156,0.016504,0.027255,7.8109e-07,0.16,0.81,0
0.008973,-0.0036418,0.034199,0.0037617,0.011388,-0.0018049,0,0,0.059308,-0.019829,0,-0.0093856,0,0,0,0.034307,0.0036533,0.011388,-3.3836,0.01645,0.027612,8.0197e-07,0.17,0.81,0
0.009569,-0.003778,0.034387,0.0034973,0.011365,-0.0015588,0,0,0.059856,-0.020457,0,-0.0081059,0,0,0,0.034467,0.0034173,0.011365,-2.8829,0.016417,0.027937,8.2185e-07,0.18,0.81,0
0.01017,-0.0039043,0.034573,0.0032897,0.011359,-0.0013187,0,0,0.060357,-0.02098,0,-0.0068573,0,0,0,0.03463,0.0032327,0.011359,-2.4104,0.016407,0.028226,8.404e-07,0.19,0.81,0
0.010776,-0.0040207,0.034756,0.0031468,0.011371,-0.0010829,0,0,0.060801,-0.021382,0,-0.005631,0,0,0,0.034794,0.0031083,0.011371,-1.9602,0.016424,0.028469,8.5717e-07,0.2,0.81,0
0.011386,-0.0041272,0.034932,0.0030789,0.011403,-0.00084785,0,0,0.061175,-0.021644,0,-0.0044088,0,0,0,0.034956,0.003055,0.011403,-1.5234,0.016472,0.028654,8.7151e-07,0.21,0.81,0
0.012,-0.004224,0.035098,0.0030992,0.011459,-0.00060795,0,0,0.061461,-0.021736,0,-0.0031613,0,0,0,0.035111,0.0030863,0.011459,-1.0872,0.016552,0.028767,8.8252e-07,0.22,0.81,0
0.012615,-0.0043107,0.035246,0.0032246,0.011541,-0.00035528,0,0,0.061632,-0.021623,0,-0.0018474,0,0,0,0.035251,0.0032193,0.011541,-0.63384,0.016671,0.028788,8.889e-07,0.23,0.81,0
0.013232,-0.0043872,0.035362,0.0034771,0.011652,-8.0999e-05,0,0,0.061647,-0.021254,0,-0.0004212,0,0,0,0.035364,0.0034754,0.011652,-0.14247,0.01683,0.028688,8.8873e-07,0.24,0.81,0
0.013848,-0.0044532,0.035419,0.0038865,0.011792,0.00021775,0,0,0.061431,-0.020553,0,0.0011323,0,0,0,0.035422,0.0038833,0.011792,0.40049,0.017032,0.028423,8.7871e-07,0.25,0.81,0
0.014461,-0.0045092,0.03538,0.004504,0.011965,0.00051463,0,0,0.060878,-0.019399,0,0.002676,0,0,0,0.03539,0.0044938,0.011965,0.9608,0.017283,0.027922,8.5396e-07,0.26,0.81,0
0.015066,-0.0045589,0.035257,0.0043127,0.011871,0.00072095,0,0,0.056742,-0.017701,0,0.0035388,0,0,0,0.035275,0.0042945,0.011871,1.3466,0.017147,0.027993,8.4723e-07,0.27,0.81,0
0.015596,-0.004615,0.035131,0.0021258,0.011177,0.00070979,0,0,0.046067,-0.015945,0,0.0029601,0,0,0,0.035149,0.002108,0.011177,1.2737,0.016144,0.029612,9.0643e-07,0.28,0.81,0
0.015987,-0.00469,0.035026,-0.0003654,0.010398,0.00049781,0,0,0.035729,-0.014968,0,0.0015979,0,0,0,0.035035,-0.00037448,0.010398,0.83108,0.01502,0.031459,9.8123e-07,0.29,0.81,0
0.01631,-0.0047804,0.034944,-0.0012534,0.010107,0.00029026,0,0,0.032288,-0.014769,0,0.00075466,0,0,0,0.034946,-0.0012561,0.010107,0.45929,0.014599,0.032068,1.0049e-06,0.3,0.81,0
0.016633,-0.0048778,0.034918,-0.0012637,0.010096,0.00020624,0,0,0.032268,-0.014768,0,0.00053623,0,0,0,0.034919,-0.0012649,0.010096,0.32642,0.014584,0.032051,1.0029e-06,0.31,0.81,0
0.016956,-0.004979,0.034905,-0.0012153,0.010107,0.00019017,0,0,0.032237,-0.014719,0,0.00049444,0,0,0,0.034906,-0.0012163,0.010107,0.30136,0.014599,0.032,1.0003e-06,0.32,0.81,0
0.017278,-0.0050823,0.034859,-0.0011417,0.010115,0.00017482,0,0,0.032167,-0.014634,0,0.00045453,0,0,0,0.03486,-0.0011426,0.010115,0.27796,0.014611,0.0319,9.944e-07,0.33,0.81,0
0.017599,-0.0051875,0.034803,-0.0010598,0.010123,0.00014341,0,0,0.032084,-0.014538,0,0.00037287,0,0,0,0.034804,-0.0010604,0.010123,0.2289,0.014622,0.031784,9.8735e-07,0.34,0.81,0
0.017919,-0.0052947,0.03475,-0.00096471,0.010135,9.9915e-05,0,0,0.031998,-0.01443,0,0.00025978,0,0,0,0.03475,-0.00096506,0.010135,0.16008,0.01464,0.03166,9.8016e-07,0.35,0.81,0
0.018239,-0.0054036,0.034699,-0.00085479,0.010153,4.8575e-05,0,0,0.031909,-0.01431,0,0.0001263,0,0,0,0.034699,-0.00085493,0.010153,0.078062,0.014666,0.031526,9.7285e-07,0.36,0.81,0
0.018558,-0.0055144,0.034651,-0.00073259,0.010175,-7.8898e-06,0,0,0.031818,-0.01418,0,-2.0514e-05,0,0,0,0.034651,-0.00073268,0.010175,-0.012998,0.014698,0.031385,9.6542e-07,0.37,0.81,0
0.018875,-0.0056269,0.034606,-0.00060219,0.010201,-6.7217e-05,0,0,0.031726,-0.014044,0,-0.00017477,0,0,0,0.034606,-0.0006024,0.010201,-0.10961,0.014735,0.03124,9.5804e-07,0.38,0.81,0
0.019192,-0.005741,0.034565,-0.00046763,0.010229,-0.00012733,0,0,0.031636,-0.013906,0,-0.00033106,0,0,0,0.034565,-0.00046816,0.010229,-0.20846,0.014775,0.031097,9.5092e-07,0.39,0.81,0
0.019508,-0.0058566,0.034529,-0.00033245,0.010259,-0.00018645,0,0,0.031551,-0.013769,0,-0.00048476,0,0,0,0.03453,-0.00033352,0.010259,-0.30661,0.014819,0.030958,9.4422e-07,0.4,0.81,0
0.019823,-0.0059735,0.034499,-0.0001997,0.01029,-0.00024312,0,0,0.031472,-0.013636,0,-0.00063212,0,0,0,0.034501,-0.00020146,0.01029,-0.4016,0.014863,0.030826,9.3808e-07,0.41,0.81,0
0.020138,-0.0060917,0.034476,-7.201e-05,0.010321,-0.00029623,0,0,0.031401,-0.013511,0,-0.0007702,0,0,0,0.034479,-7.4596e-05,0.010321,-0.49139,0.014908,0.030705,9.3261e-07,0.42,0.81,0
0.020451,-0.0062109,0.034459,4.8305e-05,0.010352,-0.00034486,0,0,0.031339,-0.013395,0,-0.00089662,0,0,0,0.034463,4.4814e-05,0.010352,-0.57425,0.014953,0.030595,9.2787e-07,0.43,0.81,0
0.020764,-0.0063309,0.034449,0.00015914,0.010382,-0.00038822,0,0,0.031287,-0.01329,0,-0.0010094,0,0,0,0.034454,0.00015472,0.010382,-0.64868,0.014997,0.0305,9.2394e-07,0.44,0.81,0
0.021077,-0.0064515,0.034446,0.00025859,0.010411,-0.00042568,0,0,0.031245,-0.013199,0,-0.0011068,0,0,0,0.034451,0.00025327,0.010411,-0.71335,0.015039,0.030419,9.2087e-07,0.45,0.81,0
0.021389,-0.0065726,0.03445,0.0003449,0.010438,-0.00045667,0,0,0.031215,-0.013121,0,-0.0011873,0,0,0,0.034456,0.00033878,0.010438,-0.76708,0.015078,0.030355,9.1872e-07,0.46,0.81,0
0.021701,-0.0066938,0.03446,0.0004165,0.010463,-0.00048073,0,0,0.031196,-0.01306,0,-0.0012499,0,0,0,0.034467,0.0004097,0.010463,-0.80891,0.015113,0.030308,9.1753e-07,0.47,0.81,0
0.022013,-0.006815,0.034478,0.00047197,0.010485,-0.00049753,0,0,0.031191,-0.013017,0,-0.0012936,0,0,0,0.034485,0.00046468,0.010485,-0.83808,0.015145,0.03028,9.1736e-07,0.48,0.81,0
0.022325,-0.0069359,0.034503,0.0005101,0.010504,-0.0005068,0,0,0.031198,-0.012992,0,-0.0013177,0,0,0,0.03451,0.00050253,0.010504,-0.85404,0.015172,0.030272,9.1823e-07,0.49,0.81,0
0.022637,-0.0070563,0.034534,0.00052986,0.010519,-0.00050837,0,0,0.03122,-0.012986,0,-0.0013218,0,0,0,0.034542,0.00052224,0.010519,-0.85638,0.015194,0.030285,9.202e-07,0.5,0.81,0
0.022949,-0.0071761,0.034573,0.00053044,0.010531,-0.00050203,0,0,0.031254,-0.013001,0,-0.0013053,0,0,0,0.03458,0.00052301,0.010531,-0.84479,0.015211,0.030319,9.2328e-07,0.51,0.81,0
0.023262,-0.0072949,0.034618,0.00051124,0.010539,-0.00048752,0,0,0.031303,-0.013036,0,-0.0012676,0,0,0,0.034625,0.00050423,0.010539,-0.81886,0.015223,0.030374,9.2747e-07,0.52,0.81,0
0.023575,-0.0074125,0.03467,0.00047194,0.010543,-0.00046444,0,0,0.031366,-0.013092,0,-0.0012075,0,0,0,0.034677,0.00046558,0.010543,-0.77807,0.015228,0.03045,9.3277e-07,0.53,0.81,0
0.02389,-0.0075288,0.034728,0.00041255,0.010542,-0.00043225,0,0,0.031441,-0.013168,0,-0.0011239,0,0,0,0.034733,0.00040703,0.010542,-0.72175,0.015227,0.030547,9.3915e-07,0.54,0.81,0
0.024204,-0.0076435,0.034791,0.00033337,0.010537,-0.00039047,0,0,0.03153,-0.013265,0,-0.0010152,0,0,0,0.034795,0.00032884,0.010537,-0.64938,0.01522,0.030664,9.4656e-07,0.55,0.81,0
0.02452,-0.0077565,0.034859,0.0002346,0.010528,-0.00033883,0,0,0.03163,-0.013382,0,-0.00088095,0,0,0,0.034863,0.00023116,0.010528,-0.56086,0.015207,0.030802,9.5502e-07,0.56,0.81,0
0.024837,-0.0078677,0.034935,0.00011503,0.010515,-0.00027719,0,0,0.031746,-0.01352,0,-0.00072071,0,0,0,0.034937,0.00011267,0.010515,-0.45637,0.015188,0.030963,9.6474e-07,0.57,0.81,0
0.025155,-0.0079769,0.035018,-3.0432e-05,0.010496,-0.00020459,0,0,0.031879,-0.013685,0,-0.00053193,0,0,0,0.03502,-3.183e-05,0.010496,-0.33474,0.015161,0.031152,9.7592e-07,0.58,0.81,0
0.025475,-0.0080841,0.035097,-0.0002094,0.010466,-0.000121,0,0,0.03202,-0.013878,0,-0.00031461,0,0,0,0.035098,-0.00021005,0.010466,-0.19659,0.015118,0.031364,9.8778e-07,0.59,0.81,0
0.025795,-0.0081897,0.03515,-0.00040684,0.010423,-4.7507e-05,0,0,0.032145,-0.014079,0,-0.00012352,0,0,0,0.03515,-0.00040705,0.010423,-0.076527,0.015055,0.031568,9.9803e-07,0.6,0.81,0
0.026117,-0.0082953,0.03522,-0.00058756,0.01039,-5.5898e-05,0,0,0.032279,-0.01427,0,-0.00014533,0,0,0,0.03522,-0.00058785,0.01039,-0.088836,0.015007,0.031775,1.0092e-06,0.61,0.81,0
0.026441,-0.0084047,0.035346,7.4361e-05,0.010626,-0.00020626,0,0,0.035889,-0.01469,0,-0.00071406,0,0,0,0.035349,7.1686e-05,0.010626,-0.35161,0.015349,0.03138,9.9452e-07,0.62,0.81,0
0.026835,-0.0085237,0.035498,0.0023276,0.011348,-0.00037993,0,0,0.046502,-0.015945,0,-0.0016193,0,0,0,0.035504,0.0023213,0.011348,-0.68224,0.016391,0.029758,9.2805e-07,0.63,0.81,0
0.027371,-0.0086533,0.035679,0.0042796,0.011988,-0.0003712,0,0,0.057513,-0.018096,0,-0.0018108,0,0,0,0.035685,0.0042737,0.011988,-0.68458,0.017315,0.028372,8.797e-07,0.64,0.81,0
0.027985,-0.0087825,0.035859,0.0042148,0.012022,-0.00016963,0,0,0.061976,-0.020299,0,-0.00088208,0,0,0,0.035862,0.0042124,0.012022,-0.31483,0.017365,0.028559,9.0117e-07,0.65,0.81,0
0.028611,-0.0089014,0.035956,0.0033023,0.011778,9.1664e-05,0,0,0.062864,-0.022036,0,0.00047665,0,0,0,0.035958,0.003301,0.011778,0.15516,0.017012,0.029352,9.4258e-07,0.66,0.81,0
0.029243,-0.0090079,0.035958,0.0025653,0.011557,0.00032377,0,0,0.063443,-0.023378,0,0.0016836,0,0,0,0.035962,0.0025615,0.011557,0.55214,0.016694,0.029935,9.696e-07,0.67,0.81,0
0.029879,-0.0091026,0.0359,0.0019586,0.011357,0.0005021,0,0,0.06381,-0.024437,0,0.0026109,0,0,0,0.035908,0.0019507,0.011357,0.84572,0.016405,0.030367,9.8648e-07,0.68,0.81,0
0.030519,-0.0091868,0.035807,0.001456,0.011179,0.00063127,0,0,0.064033,-0.02528,0,0.0032826,0,0,0,0.035819,0.0014441,0.011179,1.0519,0.016147,0.030689,9.9632e-07,0.69,0.81,0
0.03116,-0.009262,0.035694,0.0010385,0.01102,0.00072191,0,0,0.064153,-0.025951,0,0.0037539,0,0,0,0.03571,0.0010231,0.01102,1.1929,0.015918,0.030925,1.001e-06,0.7,0.81,0
0.031802,-0.0093294,0.035569,0.00069073,0.010878,0.00078381,0,0,0.064197,-0.026487,0,0.0040758,0,0,0,0.035587,0.00067283,0.010878,1.2871,0.015712,0.031094,1.002e-06,0.71,0.81,0
0.032444,-0.0093899,0.035437,0.00040062,0.010751,0.0008246,0,0,0.064182,-0.026911,0,0.0042879,0,0,0,0.035456,0.00038093,0.010751,1.3481,0.015529,0.03121,1.0001e-06,0.72,0.81,0
0.033086,-0.0094443,0.035302,0.00015829,0.010638,0.00084986,0,0,0.064126,-0.027247,0,0.0044193,0,0,0,0.035323,0.00013746,0.010638,1.3852,0.015366,0.031286,9.9632e-07,0.73,0.81,0
0.033727,-0.0094934,0.035167,-4.4244e-05,0.010537,0.00086357,0,0,0.064038,-0.027511,0,0.0044906,0,0,0,0.035188,-6.569e-05,0.010537,1.4048,0.01522,0.031329,9.9114e-07,0.74,0.81,0
0.034366,-0.0095375,0.035035,-0.00021351,0.010446,0.00086848,0,0,0.063929,-0.027716,0,0.0045161,0,0,0,0.035056,-0.00023516,0.010446,1.4113,0.015089,0.031347,9.8505e-07,0.75,0.81,0
0.035005,-0.0095772,0.034906,-0.00035483,0.010365,0.00086652,0,0,0.063806,-0.027873,0,0.0045059,0,0,0,0.034928,-0.00037636,0.010365,1.4076,0.014972,0.031345,9.784e-07,0.76,0.81,0
0.035643,-0.009613,0.034783,-0.00047261,0.010293,0.00085901,0,0,0.063673,-0.027991,0,0.0044668,0,0,0,0.034804,-0.00049376,0.010293,1.3956,0.014868,0.031329,9.7145e-07,0.77,0.81,0
0.036279,-0.009645,0.034665,-0.00057052,0.010228,0.00084687,0,0,0.063535,-0.028077,0,0.0044037,0,0,0,0.034685,-0.00059107,0.010228,1.3766,0.014774,0.031302,9.6438e-07,0.78,0.81,0
0.036913,-0.0096737,0.034553,-0.0006516,0.01017,0.00083076,0,0,0.063395,-0.028137,0,0.0043199,0,0,0,0.034573,-0.00067138,0.01017,1.3516,0.014691,0.031267,9.5733e-07,0.79,0.81,0
0.037546,-0.0096994,0.034448,-0.00071843,0.010119,0.00081113,0,0,0.063256,-0.028177,0,0.0042179,0,0,0,0.034467,-0.0007373,0.010119,1.3211,0.014616,0.031225,9.5042e-07,0.8,0.81,0
0.038178,-0.0097222,0.034349,-0.00077319,0.010073,0.00078834,0,0,0.063119,-0.0282,0,0.0040994,0,0,0,0.034367,-0.00079103,0.010073,1.2856,0.01455,0.031179,9.4372e-07,0.81,0.81,0
0.038809,-0.0097425,0.034257,-0.00081773,0.010032,0.00076265,0,0,0.062985,-0.028209,0,0.0039658,0,0,0,0.034274,-0.00083444,0.010032,1.2455,0.01449,0.031131,9.3728e-07,0.82,0.81,0
0.039438,-0.0097604,0.034171,-0.00085365,0.0099952,0.00073429,0,0,0.062857,-0.028207,0,0.0038183,0,0,0,0.034186,-0.00086916,0.0099952,1.2009,0.014437,0.031082,9.3114e-07,0.83,0.81,0
0.040066,-0.0097763,0.034091,-0.00088231,0.0099627,0.00070344,0,0,0.062734,-0.028197,0,0.0036579,0,0,0,0.034105,-0.00089656,0.0099627,1.1522,0.014391,0.031032,9.2532e-07,0.84,0.81,0
0.040693,-0.0097902,0.034018,-0.00090488,0.0099338,0.00067028,0,0,0.062618,-0.028181,0,0.0034855,0,0,0,0.034031,-0.00091784,0.0099338,1.0995,0.014349,0.030982,9.1986e-07,0.85,0.81,0
0.041318,-0.0098024,0.03395,-0.00092238,0.0099083,0.00063498,0,0,0.062508,-0.02816,0,0.0033019,0,0,0,0.033962,-0.00093402,0.0099083,1.0431,0.014312,0.030934,9.1475e-07,0.86,0.81,0
0.041943,-0.009813,0.033888,-0.00093569,0.0098857,0.00059769,0,0,0.062406,-0.028136,0,0.003108,0,0,0,0.033898,-0.00094602,0.0098857,0.98326,0.014279,0.030887,9.1001e-07,0.87,0.81,0
0.042566,-0.0098222,0.033832,-0.00094556,0.0098658,0.00055857,0,0,0.062311,-0.02811,0,0.0029046,0,0,0,0.033841,-0.0009546,0.0098658,0.92017,0.014251,0.030843,9.0564e-07,0.88,0.81,0
0.043189,-0.0098301,0.03378,-0.00095265,0.0098484,0.00051777,0,0,0.062224,-0.028083,0,0.0026924,0,0,0,0.033788,-0.00096043,0.0098484,0.85407,0.014225,0.030801,9.0163e-07,0.89,0.81,0
0.043811,-0.009837,0.033735,-0.00095752,0.0098331,0.00047545,0,0,0.062144,-0.028056,0,0.0024723,0,0,0,0.033741,-0.00096409,0.0098331,0.78521,0.014203,0.030762,8.9799e-07,0.9,0.81,0
0.044432,-0.0098427,0.033694,-0.00096066,0.0098199,0.00043174,0,0,0.062072,-0.028029,0,0.0022451,0,0,0,0.033699,-0.00096609,0.0098199,0.71383,0.014184,0.030726,8.9472e-07,0.91,0.81,0
0.045052,-0.0098476,0.033657,-0.00096249,0.0098085,0.00038681,0,0,0.062007,-0.028005,0,0.0020114,0,0,0,0.033662,-0.00096686,0.0098085,0.64019,0.014168,0.030694,8.9181e-07,0.92,0.81,0
0.045672,-0.0098517,0.033626,-0.00096334,0.0097988,0.00034079,0,0,0.061951,-0.027982,0,0.0017721,0,0,0,0.033629,-0.00096675,0.0097988,0.56454,0.014154,0.030665,8.8925e-07,0.93,0.81,0
0.046291,-0.0098551,0.033599,-0.00096353,0.0097906,0.00029383,0,0,0.061902,-0.027961,0,0.0015279,0,0,0,0.033602,-0.00096607,0.0097906,0.48714,0.014142,0.03064,8.8704e-07,0.94,0.81,0
0.04691,-0.0098578,0.033576,-0.0009633,0.0097839,0.00024607,0,0,0.06186,-0.027943,0,0.0012795,0,0,0,0.033578,-0.0009651,0.0097839,0.40824,0.014132,0.030618,8.8518e-07,0.95,0.81,0
0.047529,-0.00986,0.033558,-0.00096285,0.0097785,0.00019764,0,0,0.061826,-0.027928,0,0.0010277,0,0,0,0.033559,-0.00096402,0.0097785,0.32808,0.014125,0.0306,8.8367e-07,0.96,0.81,0
0.048147,-0.0098616,0.033544,-0.00096234,0.0097744,0.00014869,0,0,0.0618,-0.027916,0,0.00077319,0,0,0,0.033544,-0.00096302,0.0097744,0.24693,0.014119,0.030587,8.8249e-07,0.97,0.81,0
0.048765,-0.0098627,0.033534,-0.00096189,0.0097715,9.9345e-05,0,0,0.061782,-0.027907,0,0.00051659,0,0,0,0.033534,-0.00096221,0.0097715,0.16504,0.014114,0.030577,8.8165e-07,0.98,0.81,0
0.049382,-0.0098634,0.033528,-0.00096159,0.0097698,4.8688e-05,0,0,0.06177,-0.027902,0,0.00025318,0,0,0,0.033528,-0.00096169,0.0097698,0.080898,0.014112,0.030571,8.8115e-07,0.99,0.81,0
0.049691,-0.0098636,0.033526,-0.00096148,0.0097692,2.2786e-05,0,0,0.061767,-0.0279,0,0.00011849,0,0,0,0.033526,-0.00096152,0.0097692,0.037865,0.014111,0.030569,8.8099e-07,1,0.81,0
0.00022789,-0.00013337,0.030645,0.012752,0.013019,-0.0051241,0,0,0.045828,-0.0006954,0,-0.026645,0,0,0,0.03201,0.011387,0.013019,-14.9,0.018805,0.019859,3.9305e-07,0,0.82,0
0.00045828,-0.00026681,0.030696,0.012388,0.012925,-0.0051147,0,0,0.046204,-0.001396,0,-0.026597,0,0,0,0.03203,0.011054,0.012925,-14.603,0.01867,0.020108,4.0537e-07,0.01,0.82,0
0.00092408,-0.00053358,0.030881,0.011693,0.012772,-0.0050847,0,0,0.047083,-0.0028061,0,-0.02644,0,0,0,0.032148,0.010426,0.012772,-13.969,0.018449,0.02065,4.3276e-07,0.02,0.82,0
0.0013999,-0.00079953,0.031149,0.011025,0.012652,-0.0050276,0,0,0.048092,-0.0042306,0,-0.026144,0,0,0,0.032338,0.0098364,0.012652,-13.282,0.018276,0.021236,4.6291e-07,0.03,0.82,0
0.0018859,-0.0010635,0.031417,0.010354,0.012531,-0.0049391,0,0,0.049102,-0.0056609,0,-0.025683,0,0,0,0.03252,0.0092504,0.012531,-12.571,0.0181,0.021816,4.9297e-07,0.04,0.82,0
0.002382,-0.0013243,0.03168,0.009684,0.012409,-0.004819,0,0,0.050105,-0.0070857,0,-0.025059,0,0,0,0.032692,0.0086717,0.012409,-11.838,0.017924,0.022389,5.227e-07,0.05,0.82,0
0.002888,-0.0015806,0.031939,0.0090214,0.012288,-0.0046684,0,0,0.051091,-0.008493,0,-0.024276,0,0,0,0.032856,0.0081041,0.012288,-11.091,0.017749,0.022949,5.5188e-07,0.06,0.82,0
0.0034038,-0.0018312,0.032189,0.008372,0.012168,-0.0044895,0,0,0.052054,-0.0098707,0,-0.023345,0,0,0,0.03301,0.0075509,0.012168,-10.335,0.017577,0.023495,5.8034e-07,0.07,0.82,0
0.0039291,-0.0020751,0.032431,0.0077411,0.012052,-0.0042854,0,0,0.052986,-0.011207,0,-0.022284,0,0,0,0.033157,0.0070156,0.012052,-9.5783,0.017408,0.024023,6.0793e-07,0.08,0.82,0
0.0044635,-0.0023112,0.032663,0.0071336,0.011939,-0.0040602,0,0,0.053882,-0.012494,0,-0.021113,0,0,0,0.033296,0.0065007,0.011939,-8.8283,0.017245,0.024533,6.3458e-07,0.09,0.82,0
0.0050067,-0.0025386,0.032884,0.0065539,0.011831,-0.003818,0,0,0.054738,-0.013722,0,-0.019853,0,0,0,0.03343,0.0060087,0.011831,-8.0915,0.01709,0.025024,6.6023e-07,0.1,0.82,0
0.0055583,-0.0027565,0.033096,0.0060052,0.01173,-0.0035632,0,0,0.055551,-0.014885,0,-0.018529,0,0,0,0.033559,0.0055418,0.01173,-7.374,0.016944,0.025494,6.849e-07,0.11,0.82,0
0.0061178,-0.0029645,0.033299,0.0054906,0.011637,-0.0033004,0,0,0.056321,-0.01598,0,-0.017162,0,0,0,0.033687,0.0051019,0.011637,-6.6809,0.016809,0.025943,7.0862e-07,0.12,0.82,0
0.0066847,-0.003162,0.033493,0.0050125,0.011552,-0.0030334,0,0,0.057048,-0.017002,0,-0.015774,0,0,0,0.033815,0.0046907,0.011552,-6.0164,0.016686,0.026372,7.3145e-07,0.13,0.82,0
0.0072587,-0.0033487,0.033681,0.0045732,0.011476,-0.002766,0,0,0.057733,-0.017948,0,-0.014383,0,0,0,0.033944,0.0043105,0.011476,-5.3836,0.016577,0.02678,7.5343e-07,0.14,0.82,0
0.0078394,-0.0035244,0.033865,0.0041749,0.011412,-0.0025011,0,0,0.058377,-0.018816,0,-0.013006,0,0,0,0.034076,0.0039637,0.011412,-4.7846,0.016484,0.027165,7.746e-07,0.15,0.82,0
0.0084263,-0.003689,0.034045,0.0038202,0.01136,-0.0022412,0,0,0.058982,-0.019602,0,-0.011654,0,0,0,0.034212,0.0036531,0.01136,-4.2201,0.016408,0.027527,7.9496e-07,0.16,0.82,0
0.009019,-0.0038425,0.034223,0.0035122,0.011321,-0.0019876,0,0,0.059547,-0.020302,0,-0.010335,0,0,0,0.034353,0.0033825,0.011321,-3.6895,0.016352,0.027863,8.1448e-07,0.17,0.82,0
0.0096172,-0.003985,0.034401,0.0032549,0.011297,-0.0017407,0,0,0.060071,-0.020909,0,-0.0090517,0,0,0,0.034499,0.0031564,0.011297,-3.1904,0.016318,0.028169,8.3305e-07,0.18,0.82,0
0.01022,-0.0041164,0.034579,0.0030532,0.01129,-0.0014997,0,0,0.060551,-0.021414,0,-0.0077987,0,0,0,0.034651,0.0029806,0.01129,-2.7186,0.016307,0.028442,8.505e-07,0.19,0.82,0
0.010828,-0.0042367,0.034757,0.0029137,0.011301,-0.0012622,0,0,0.060984,-0.021807,0,-0.0065633,0,0,0,0.034808,0.0028623,0.011301,-2.267,0.016324,0.028673,8.6656e-07,0.2,0.82,0
0.01144,-0.0043459,0.034935,0.0028446,0.011334,-0.0010236,0,0,0.061363,-0.022072,0,-0.0053228,0,0,0,0.034969,0.0028106,0.011334,-1.8253,0.016371,0.028857,8.8085e-07,0.21,0.82,0
0.012055,-0.0044437,0.035113,0.002857,0.011391,-0.00077719,0,0,0.061678,-0.022189,0,-0.0040414,0,0,0,0.035134,0.0028368,0.011391,-1.379,0.016454,0.028983,8.9288e-07,0.22,0.82,0
0.012674,-0.0045296,0.035291,0.0029656,0.011477,-0.00051322,0,0,0.061916,-0.02213,0,-0.0026687,0,0,0,0.035301,0.0029558,0.011477,-0.90806,0.016578,0.029038,9.02e-07,0.23,0.82,0
0.013294,-0.0046028,0.035465,0.0031914,0.011597,-0.00021883,0,0,0.062058,-0.021855,0,-0.0011379,0,0,0,0.035469,0.003188,0.011597,-0.38575,0.016751,0.029006,9.0722e-07,0.24,0.82,0
0.013915,-0.0046624,0.035624,0.0035674,0.011758,0.00012106,0,0,0.062054,-0.021294,0,0.00062951,0,0,0,0.035627,0.0035644,0.011758,0.22163,0.016983,0.028853,9.0642e-07,0.25,0.82,0
0.014535,-0.0047073,0.035717,0.0041568,0.011962,0.00050387,0,0,0.061763,-0.020294,0,0.0026201,0,0,0,0.035728,0.0041457,0.011962,0.92393,0.017279,0.028491,8.9328e-07,0.26,0.82,0
0.01515,-0.0047388,0.035672,0.004063,0.01192,0.00079985,0,0,0.057683,-0.018466,0,0.0039767,0,0,0,0.035695,0.0040396,0.01192,1.4729,0.017219,0.028563,8.891e-07,0.27,0.82,0
0.015689,-0.0047748,0.035569,0.0022003,0.011331,0.00082891,0,0,0.04672,-0.016188,0,0.0035329,0,0,0,0.035595,0.0021743,0.011331,1.4789,0.016367,0.029954,9.4016e-07,0.28,0.82,0
0.016084,-0.0048389,0.035501,-0.00010579,0.010618,0.00061442,0,0,0.036131,-0.014923,0,0.0019926,0,0,0,0.035516,-0.00012095,0.010618,1.021,0.015338,0.031684,1.0144e-06,0.29,0.82,0
0.016411,-0.0049282,0.035412,-0.0011444,0.01028,0.00038491,0,0,0.032671,-0.014852,0,0.0010008,0,0,0,0.035418,-0.0011498,0.01028,0.60221,0.014849,0.032402,1.0429e-06,0.3,0.82,0
0.016738,-0.0050261,0.035294,-0.0012506,0.010213,0.00030161,0,0,0.032606,-0.014903,0,0.00078419,0,0,0,0.035297,-0.0012536,0.010213,0.47139,0.014752,0.032378,1.0353e-06,0.31,0.82,0
0.017063,-0.0051266,0.035156,-0.0011742,0.010194,0.00028896,0,0,0.03245,-0.014779,0,0.00075129,0,0,0,0.035158,-0.0011769,0.010194,0.45499,0.014725,0.032193,1.0209e-06,0.32,0.82,0
0.017387,-0.0052288,0.035016,-0.0010967,0.010176,0.00025617,0,0,0.032292,-0.014654,0,0.00066604,0,0,0,0.035018,-0.0010987,0.010176,0.40605,0.014698,0.032005,1.0066e-06,0.33,0.82,0
0.017709,-0.005333,0.034911,-0.0010134,0.010169,0.00021169,0,0,0.032164,-0.014537,0,0.00055038,0,0,0,0.034912,-0.0010148,0.010169,0.33734,0.014689,0.031844,9.9524e-07,0.34,0.82,0
0.01803,-0.0054389,0.034829,-0.00091315,0.010175,0.00016235,0,0,0.032051,-0.014414,0,0.00042211,0,0,0,0.03483,-0.000914,0.010175,0.26001,0.014697,0.03169,9.8547e-07,0.35,0.82,0
0.01835,-0.0055466,0.034758,-0.00079728,0.010188,0.00010754,0,0,0.03194,-0.014281,0,0.00027961,0,0,0,0.034758,-0.00079772,0.010188,0.17306,0.014716,0.031532,9.7619e-07,0.36,0.82,0
0.018669,-0.005656,0.034692,-0.00067071,0.010206,4.7142e-05,0,0,0.031832,-0.01414,0,0.00012257,0,0,0,0.034692,-0.00067088,0.010206,0.076146,0.014743,0.031372,9.6715e-07,0.37,0.82,0
0.018987,-0.0057671,0.034633,-0.00053829,0.010228,-1.7203e-05,0,0,0.031726,-0.013997,0,-4.4727e-05,0,0,0,0.034633,-0.0005384,0.010228,-0.028254,0.014774,0.031213,9.5848e-07,0.38,0.82,0
0.019304,-0.0058798,0.03458,-0.00040387,0.010253,-8.3187e-05,0,0,0.031625,-0.013854,0,-0.00021628,0,0,0,0.03458,-0.00040417,0.010253,-0.13646,0.014809,0.031059,9.5031e-07,0.39,0.82,0
0.019619,-0.005994,0.034533,-0.00027053,0.010279,-0.00014868,0,0,0.031531,-0.013714,0,-0.00038657,0,0,0,0.034534,-0.00027126,0.010279,-0.24497,0.014847,0.030911,9.4276e-07,0.4,0.82,0
0.019934,-0.0061096,0.034494,-0.00014089,0.010306,-0.00021201,0,0,0.031444,-0.013581,0,-0.00055124,0,0,0,0.034495,-0.00014226,0.010306,-0.3509,0.014886,0.030774,9.359e-07,0.41,0.82,0
0.020248,-0.0062266,0.034461,-1.7273e-05,0.010333,-0.00027192,0,0,0.031367,-0.013456,0,-0.00070699,0,0,0,0.034464,-1.948e-05,0.010333,-0.45199,0.014926,0.030648,9.298e-07,0.42,0.82,0
0.020561,-0.0063446,0.034436,9.8156e-05,0.01036,-0.00032743,0,0,0.031299,-0.013341,0,-0.00085133,0,0,0,0.034439,9.4984e-05,0.01036,-0.54642,0.014965,0.030534,9.2453e-07,0.43,0.82,0
0.020874,-0.0064636,0.034418,0.00020342,0.010386,-0.00037777,0,0,0.031241,-0.013238,0,-0.00098219,0,0,0,0.034422,0.00019921,0.010386,-0.63261,0.015003,0.030436,9.2012e-07,0.44,0.82,0
0.021186,-0.0065833,0.034407,0.00029668,0.010411,-0.00042227,0,0,0.031195,-0.013149,0,-0.0010979,0,0,0,0.034412,0.00029143,0.010411,-0.70923,0.015038,0.030354,9.1663e-07,0.45,0.82,0
0.021498,-0.0067036,0.034404,0.00037631,0.010434,-0.00046038,0,0,0.03116,-0.013075,0,-0.001197,0,0,0,0.03441,0.00037006,0.010434,-0.77508,0.015071,0.030289,9.1412e-07,0.46,0.82,0
0.021809,-0.0068242,0.034407,0.00044082,0.010454,-0.00049166,0,0,0.031139,-0.013018,0,-0.0012783,0,0,0,0.034415,0.00043369,0.010454,-0.82917,0.015101,0.030242,9.1263e-07,0.47,0.82,0
0.022121,-0.006945,0.034419,0.00048893,0.010472,-0.00051575,0,0,0.03113,-0.012978,0,-0.001341,0,0,0,0.034427,0.00048108,0.010472,-0.8707,0.015127,0.030215,9.122e-07,0.48,0.82,0
0.022432,-0.0070657,0.034438,0.0005195,0.010487,-0.0005324,0,0,0.031136,-0.012958,0,-0.0013842,0,0,0,0.034446,0.00051114,0.010487,-0.89909,0.015148,0.030209,9.1287e-07,0.49,0.82,0
0.022744,-0.0071861,0.034465,0.00053158,0.010499,-0.00054139,0,0,0.031156,-0.012957,0,-0.0014076,0,0,0,0.034473,0.00052292,0.010499,-0.91388,0.015165,0.030224,9.1468e-07,0.5,0.82,0
0.023055,-0.007306,0.034499,0.00052431,0.010507,-0.00054252,0,0,0.03119,-0.012978,0,-0.0014106,0,0,0,0.034508,0.00051562,0.010507,-0.91467,0.015177,0.03026,9.1769e-07,0.51,0.82,0
0.023367,-0.0074251,0.034542,0.00049698,0.010512,-0.00053548,0,0,0.03124,-0.013019,0,-0.0013922,0,0,0,0.034551,0.00048852,0.010512,-0.90097,0.015184,0.03032,9.2193e-07,0.52,0.82,0
0.02368,-0.0075434,0.034594,0.00044905,0.010513,-0.00051974,0,0,0.031305,-0.013083,0,-0.0013513,0,0,0,0.034602,0.00044109,0.010513,-0.87201,0.015185,0.030403,9.2744e-07,0.53,0.82,0
0.023993,-0.0076605,0.034653,0.00038032,0.01051,-0.00049463,0,0,0.031386,-0.013169,0,-0.001286,0,0,0,0.034661,0.00037311,0.01051,-0.82684,0.015181,0.030509,9.3424e-07,0.54,0.82,0
0.024308,-0.0077762,0.034722,0.00029126,0.010504,-0.0004596,0,0,0.031483,-0.013276,0,-0.0011949,0,0,0,0.034728,0.00028503,0.010504,-0.76485,0.015172,0.030639,9.4235e-07,0.55,0.82,0
0.024623,-0.0078905,0.0348,0.00018332,0.010495,-0.00041515,0,0,0.031596,-0.013405,0,-0.0010794,0,0,0,0.034805,0.00017821,0.010495,-0.68726,0.015159,0.030793,9.5183e-07,0.56,0.82,0
0.02494,-0.0080031,0.034892,5.8163e-05,0.010485,-0.00036402,0,0,0.031729,-0.013555,0,-0.00094645,0,0,0,0.034896,5.4181e-05,0.010485,-0.59895,0.015145,0.030973,9.6308e-07,0.57,0.82,0
0.025258,-0.008114,0.035013,-8.5747e-05,0.010478,-0.00031,0,0,0.031895,-0.013733,0,-0.000806,0,0,0,0.035016,-8.8762e-05,0.010478,-0.5063,0.015135,0.031194,9.773e-07,0.58,0.82,0
0.025578,-0.0082234,0.035174,-0.00026119,0.010474,-0.00025008,0,0,0.03211,-0.013956,0,-0.00065021,0,0,0,0.035176,-0.00026347,0.010474,-0.40448,0.015129,0.031476,9.9606e-07,0.59,0.82,0
0.0259,-0.0083311,0.035341,-0.00047411,0.01046,-0.00017967,0,0,0.032345,-0.014214,0,-0.00046715,0,0,0,0.035342,-0.00047571,0.01046,-0.28669,0.015109,0.031793,1.0166e-06,0.6,0.82,0
0.026224,-0.0084381,0.03549,-0.00054549,0.010483,-0.00019167,0,0,0.032509,-0.014338,0,-0.00049835,0,0,0,0.035493,-0.00054784,0.010483,-0.30315,0.015143,0.031985,1.0318e-06,0.61,0.82,0
0.02655,-0.0085506,0.035611,0.00028411,0.010769,-0.00036488,0,0,0.036096,-0.014603,0,-0.0012338,0,0,0,0.035619,0.00027657,0.010769,-0.61646,0.015555,0.031457,1.011e-06,0.62,0.82,0
0.026946,-0.0086831,0.035716,0.002376,0.011428,-0.0005428,0,0,0.046864,-0.016095,0,-0.0023694,0,0,0,0.035729,0.002363,0.011428,-0.97552,0.016507,0.029924,9.4488e-07,0.63,0.82,0
0.027487,-0.0088363,0.035863,0.0040267,0.011967,-0.00049914,0,0,0.058059,-0.018698,0,-0.0024921,0,0,0,0.035874,0.0040161,0.011967,-0.91715,0.017286,0.028738,9.0401e-07,0.64,0.82,0
0.028108,-0.0089884,0.035955,0.0038896,0.011953,-0.00021323,0,0,0.062405,-0.020966,0,-0.0011088,0,0,0,0.035959,0.0038856,0.011953,-0.39154,0.017266,0.028899,9.2118e-07,0.65,0.82,0
0.028735,-0.009124,0.035913,0.0030352,0.011685,0.00013188,0,0,0.062995,-0.022488,0,0.00068578,0,0,0,0.035915,0.003033,0.011685,0.22387,0.016878,0.029524,9.4879e-07,0.66,0.82,0
0.029367,-0.009243,0.035807,0.0023609,0.01145,0.00040588,0,0,0.063326,-0.023632,0,0.0021106,0,0,0,0.035812,0.0023549,0.01145,0.6922,0.016539,0.029964,9.6442e-07,0.67,0.82,0
0.030002,-0.0093475,0.035684,0.0018088,0.011248,0.00060651,0,0,0.063533,-0.024541,0,0.0031538,0,0,0,0.035695,0.0017973,0.011248,1.0241,0.016247,0.030299,9.7393e-07,0.68,0.82,0
0.030638,-0.0094397,0.035556,0.0013497,0.011072,0.00074953,0,0,0.063659,-0.025277,0,0.0038976,0,0,0,0.035573,0.0013329,0.011072,1.2544,0.015992,0.030558,9.7929e-07,0.69,0.82,0
0.031275,-0.0095212,0.035425,0.00096522,0.010917,0.00084891,0,0,0.063721,-0.025875,0,0.0044143,0,0,0,0.035447,0.00094396,0.010917,1.4106,0.015769,0.030754,9.8142e-07,0.7,0.82,0
0.031913,-0.0095937,0.035293,0.00064207,0.010781,0.00091569,0,0,0.063733,-0.02636,0,0.0047616,0,0,0,0.035318,0.00061758,0.010781,1.5133,0.015572,0.030899,9.8102e-07,0.71,0.82,0
0.03255,-0.0096583,0.035161,0.00037018,0.010659,0.00095829,0,0,0.063704,-0.026752,0,0.0049831,0,0,0,0.035188,0.00034352,0.010659,1.5773,0.015397,0.031001,9.7866e-07,0.72,0.82,0
0.033187,-0.009716,0.03503,0.00014145,0.010551,0.00098295,0,0,0.063644,-0.027066,0,0.0051113,0,0,0,0.035058,0.0001135,0.010551,1.6134,0.015241,0.03107,9.7483e-07,0.73,0.82,0
0.033823,-0.0097676,0.034902,-5.0801e-05,0.010455,0.00099421,0,0,0.063561,-0.027316,0,0.0051699,0,0,0,0.03493,-7.9318e-05,0.010455,1.6288,0.015102,0.03111,9.6993e-07,0.74,0.82,0
0.034458,-0.0098137,0.034777,-0.00021211,0.010369,0.00099531,0,0,0.063459,-0.027512,0,0.0051756,0,0,0,0.034805,-0.00024064,0.010369,1.6289,0.014978,0.031128,9.6429e-07,0.75,0.82,0
0.035092,-0.009855,0.034657,-0.00034711,0.010293,0.00098856,0,0,0.063346,-0.027664,0,0.0051405,0,0,0,0.034685,-0.00037523,0.010293,1.6172,0.014867,0.031128,9.5819e-07,0.76,0.82,0
0.035725,-0.0098919,0.034541,-0.00045973,0.010224,0.00097559,0,0,0.063224,-0.027779,0,0.0050731,0,0,0,0.034569,-0.00048711,0.010224,1.5961,0.014769,0.031115,9.5181e-07,0.77,0.82,0
0.036356,-0.0099248,0.034432,-0.00055329,0.010163,0.00095756,0,0,0.063097,-0.027864,0,0.0049793,0,0,0,0.034458,-0.00057967,0.010163,1.5673,0.014681,0.031091,9.4533e-07,0.78,0.82,0
0.036987,-0.0099541,0.034328,-0.00063061,0.010109,0.0009353,0,0,0.062968,-0.027923,0,0.0048635,0,0,0,0.034353,-0.00065579,0.010109,1.5321,0.014602,0.031058,9.3886e-07,0.79,0.82,0
0.037616,-0.0099801,0.03423,-0.00069411,0.010061,0.0009094,0,0,0.06284,-0.027963,0,0.0047289,0,0,0,0.034254,-0.00071793,0.010061,1.4912,0.014532,0.03102,9.325e-07,0.8,0.82,0
0.038243,-0.010003,0.034138,-0.00074587,0.010018,0.00088032,0,0,0.062713,-0.027985,0,0.0045777,0,0,0,0.03416,-0.00076822,0.010018,1.4452,0.01447,0.030977,9.2632e-07,0.81,0.82,0
0.03887,-0.010024,0.034052,-0.00078768,0.0099793,0.0008484,0,0,0.062589,-0.027994,0,0.0044117,0,0,0,0.034073,-0.00080846,0.0099793,1.3946,0.014415,0.030932,9.2036e-07,0.82,0.82,0
0.039495,-0.010042,0.033972,-0.00082109,0.0099454,0.00081391,0,0,0.06247,-0.027993,0,0.0042323,0,0,0,0.033992,-0.00084023,0.0099454,1.3397,0.014366,0.030885,9.1468e-07,0.83,0.82,0
0.040119,-0.010057,0.033898,-0.00084743,0.0099153,0.00077708,0,0,0.062356,-0.027983,0,0.0040408,0,0,0,0.033916,-0.0008649,0.0099153,1.2809,0.014322,0.030838,9.0929e-07,0.84,0.82,0
0.040742,-0.010071,0.03383,-0.00086786,0.0098887,0.0007381,0,0,0.062248,-0.027967,0,0.0038381,0,0,0,0.033846,-0.00088365,0.0098887,1.2184,0.014284,0.030791,9.0421e-07,0.85,0.82,0
0.041364,-0.010083,0.033768,-0.00088339,0.0098652,0.00069716,0,0,0.062146,-0.027946,0,0.0036253,0,0,0,0.033782,-0.00089749,0.0098652,1.1524,0.01425,0.030745,8.9947e-07,0.86,0.82,0
0.041985,-0.010093,0.03371,-0.00089488,0.0098446,0.00065443,0,0,0.062051,-0.027923,0,0.0034031,0,0,0,0.033723,-0.00090733,0.0098446,1.0833,0.01422,0.0307,8.9506e-07,0.87,0.82,0
0.042605,-0.010102,0.033658,-0.00090309,0.0098265,0.00061006,0,0,0.061962,-0.027897,0,0.0031723,0,0,0,0.033669,-0.00091393,0.0098265,1.0112,0.014194,0.030658,8.91e-07,0.88,0.82,0
0.043225,-0.01011,0.033611,-0.00090867,0.0098107,0.0005642,0,0,0.061881,-0.02787,0,0.0029339,0,0,0,0.03362,-0.00091795,0.0098107,0.93634,0.014171,0.030618,8.8727e-07,0.89,0.82,0
0.043843,-0.010116,0.033569,-0.00091218,0.0097969,0.000517,0,0,0.061806,-0.027844,0,0.0026884,0,0,0,0.033576,-0.00091999,0.0097969,0.85901,0.014151,0.03058,8.8389e-07,0.9,0.82,0
0.044461,-0.010122,0.033531,-0.0009141,0.009785,0.0004686,0,0,0.061739,-0.027818,0,0.0024367,0,0,0,0.033537,-0.00092053,0.009785,0.77944,0.014134,0.030546,8.8084e-07,0.91,0.82,0
0.045078,-0.010127,0.033498,-0.00091485,0.0097748,0.00041913,0,0,0.061679,-0.027793,0,0.0021795,0,0,0,0.033503,-0.00092001,0.0097748,0.69784,0.014119,0.030515,8.7813e-07,0.92,0.82,0
0.045694,-0.010131,0.033469,-0.00091477,0.0097661,0.00036873,0,0,0.061626,-0.02777,0,0.0019174,0,0,0,0.033473,-0.00091877,0.0097661,0.61446,0.014107,0.030487,8.7576e-07,0.93,0.82,0
0.04631,-0.010134,0.033444,-0.00091415,0.0097589,0.00031752,0,0,0.061581,-0.02775,0,0.0016511,0,0,0,0.033447,-0.00091713,0.0097589,0.52953,0.014096,0.030463,8.7371e-07,0.94,0.82,0
0.046926,-0.010136,0.033423,-0.00091324,0.0097529,0.00026562,0,0,0.061542,-0.027732,0,0.0013812,0,0,0,0.033425,-0.00091534,0.0097529,0.44328,0.014088,0.030442,8.7198e-07,0.95,0.82,0
0.047541,-0.010138,0.033406,-0.00091224,0.0097482,0.00021317,0,0,0.061511,-0.027717,0,0.0011085,0,0,0,0.033408,-0.00091361,0.0097482,0.35593,0.014081,0.030425,8.7057e-07,0.96,0.82,0
0.048156,-0.01014,0.033393,-0.00091131,0.0097446,0.00016026,0,0,0.061486,-0.027705,0,0.00083336,0,0,0,0.033394,-0.0009121,0.0097446,0.26771,0.014075,0.030412,8.6948e-07,0.97,0.82,0
0.048771,-0.010141,0.033384,-0.00091055,0.009742,0.00010702,0,0,0.061469,-0.027697,0,0.00055653,0,0,0,0.033384,-0.00091093,0.009742,0.17883,0.014072,0.030402,8.687e-07,0.98,0.82,0
0.049385,-0.010141,0.033378,-0.00091007,0.0097405,5.2603e-05,0,0,0.061459,-0.027691,0,0.00027353,0,0,0,0.033379,-0.0009102,0.0097405,0.087913,0.01407,0.030397,8.6824e-07,0.99,0.82,0
0.049693,-0.010142,0.033377,-0.0009099,0.00974,2.4868e-05,0,0,0.061455,-0.02769,0,0.00012931,0,0,0,0.033377,-0.00090995,0.00974,0.041566,0.014069,0.030395,8.6808e-07,1,0.82,0
0.00022827,-0.00014046,0.030695,0.012758,0.013036,-0.005397,0,0,0.045915,-0.00072354,0,-0.028065,0,0,0,0.032196,0.011257,0.013036,-15.518,0.01883,0.020109,4.0661e-07,0,0.83,0
0.00045915,-0.00028106,0.030748,0.012379,0.012938,-0.0053882,0,0,0.046306,-0.0014541,0,-0.028019,0,0,0,0.032215,0.010913,0.012938,-15.205,0.018688,0.020367,4.1943e-07,0.01,0.83,0
0.00092612,-0.00056223,0.03094,0.011652,0.012778,-0.005359,0,0,0.047223,-0.002927,0,-0.027867,0,0,0,0.032332,0.01026,0.012778,-14.538,0.018457,0.020929,4.4804e-07,0.02,0.83,0
0.0014036,-0.00084276,0.031219,0.010952,0.012651,-0.0053016,0,0,0.048276,-0.0044187,0,-0.027568,0,0,0,0.032525,0.0096457,0.012651,-13.817,0.018274,0.021536,4.7957e-07,0.03,0.83,0
0.0018916,-0.0011214,0.031495,0.010247,0.012522,-0.0052102,0,0,0.049329,-0.0059173,0,-0.027093,0,0,0,0.032707,0.0090349,0.012522,-13.07,0.018088,0.022137,5.109e-07,0.04,0.83,0
0.0023902,-0.0013967,0.031766,0.0095437,0.012393,-0.0050845,0,0,0.05037,-0.0074081,0,-0.026439,0,0,0,0.032877,0.0084326,0.012393,-12.302,0.017901,0.022726,5.417e-07,0.05,0.83,0
0.002899,-0.0016674,0.032029,0.00885,0.012264,-0.0049257,0,0,0.051391,-0.008876,0,-0.025614,0,0,0,0.033036,0.0078436,0.012264,-11.521,0.017714,0.0233,5.7169e-07,0.06,0.83,0
0.003418,-0.001932,0.032282,0.0081726,0.012136,-0.0047366,0,0,0.052379,-0.010306,0,-0.02463,0,0,0,0.033183,0.0072723,0.012136,-10.733,0.01753,0.023854,6.0061e-07,0.07,0.83,0
0.0039466,-0.0021895,0.032523,0.0075178,0.012012,-0.004521,0,0,0.053328,-0.011686,0,-0.023509,0,0,0,0.033319,0.0067225,0.012012,-9.9468,0.017351,0.024386,6.2832e-07,0.08,0.83,0
0.0044846,-0.0024386,0.032751,0.0068911,0.011893,-0.0042836,0,0,0.054232,-0.013004,0,-0.022275,0,0,0,0.033445,0.0061971,0.011893,-9.171,0.017178,0.024895,6.5471e-07,0.09,0.83,0
0.0050313,-0.0026784,0.032965,0.006297,0.011779,-0.0040293,0,0,0.055085,-0.014253,0,-0.020953,0,0,0,0.033564,0.0056987,0.011779,-8.4125,0.017014,0.025378,6.7977e-07,0.1,0.83,0
0.0055863,-0.0029081,0.033167,0.0057387,0.011672,-0.0037634,0,0,0.055888,-0.015426,0,-0.01957,0,0,0,0.033677,0.0052291,0.011672,-7.6776,0.016859,0.025837,7.0352e-07,0.11,0.83,0
0.006149,-0.003127,0.033357,0.0052191,0.011573,-0.0034906,0,0,0.056639,-0.01652,0,-0.018151,0,0,0,0.033786,0.0047901,0.011573,-6.9715,0.016716,0.02627,7.2604e-07,0.12,0.83,0
0.006719,-0.0033347,0.033537,0.0047399,0.011483,-0.0032155,0,0,0.05734,-0.017532,0,-0.01672,0,0,0,0.033894,0.004383,0.011483,-6.2982,0.016587,0.02668,7.4742e-07,0.13,0.83,0
0.0072958,-0.0035307,0.033709,0.004303,0.011404,-0.0029417,0,0,0.057994,-0.018462,0,-0.015297,0,0,0,0.034003,0.0040096,0.011404,-5.6603,0.016472,0.027065,7.6775e-07,0.14,0.83,0
0.0078789,-0.003715,0.033875,0.0039098,0.011336,-0.0026724,0,0,0.058603,-0.019307,0,-0.013897,0,0,0,0.034114,0.0036715,0.011336,-5.0595,0.016374,0.027426,7.8713e-07,0.15,0.83,0
0.0084679,-0.0038874,0.034037,0.0035622,0.01128,-0.0024099,0,0,0.05917,-0.020066,0,-0.012532,0,0,0,0.034229,0.0033711,0.01128,-4.4959,0.016293,0.027762,8.0561e-07,0.16,0.83,0
0.0090623,-0.0040478,0.034198,0.0032621,0.011238,-0.0021553,0,0,0.059696,-0.020737,0,-0.011208,0,0,0,0.034349,0.0031111,0.011238,-3.9683,0.016233,0.028071,8.2322e-07,0.17,0.83,0
0.0096618,-0.0041962,0.034358,0.0030125,0.011211,-0.0019089,0,0,0.060182,-0.021317,0,-0.0099261,0,0,0,0.034475,0.0028952,0.011211,-3.4736,0.016194,0.028352,8.3994e-07,0.18,0.83,0
0.010266,-0.0043326,0.03452,0.0028169,0.011201,-0.0016693,0,0,0.06063,-0.021799,0,-0.0086804,0,0,0,0.034609,0.0027279,0.011201,-3.007,0.016179,0.028602,8.5572e-07,0.19,0.83,0
0.010874,-0.0044568,0.034686,0.0026802,0.01121,-0.0014339,0,0,0.061037,-0.022177,0,-0.0074564,0,0,0,0.034751,0.0026147,0.01121,-2.5611,0.016192,0.028817,8.7044e-07,0.2,0.83,0
0.011487,-0.0045687,0.034856,0.0026086,0.011239,-0.0011981,0,0,0.061403,-0.02244,0,-0.0062301,0,0,0,0.034901,0.0025628,0.011239,-2.1254,0.016235,0.028991,8.8392e-07,0.21,0.83,0
0.012102,-0.0046677,0.035033,0.0026107,0.011293,-0.00095496,0,0,0.061723,-0.022574,0,-0.0049658,0,0,0,0.035062,0.0025812,0.011293,-1.6858,0.016312,0.02912,8.9597e-07,0.22,0.83,0
0.012721,-0.0047533,0.03522,0.0026986,0.011376,-0.000695,0,0,0.061995,-0.02256,0,-0.003614,0,0,0,0.035236,0.0026821,0.011376,-1.2232,0.016431,0.029195,9.0633e-07,0.23,0.83,0
0.013342,-0.0048243,0.035422,0.0028911,0.011494,-0.00040536,0,0,0.062212,-0.022367,0,-0.0021079,0,0,0,0.035429,0.0028839,0.011494,-0.71237,0.016602,0.029208,9.1471e-07,0.24,0.83,0
0.013965,-0.0048791,0.035648,0.0032224,0.011661,-6.7172e-05,0,0,0.062366,-0.021941,0,-0.00034929,0,0,0,0.035651,0.0032193,0.011661,-0.11546,0.016844,0.029143,9.2067e-07,0.25,0.83,0
0.01459,-0.0049151,0.03588,0.0037535,0.01189,0.00035216,0,0,0.062375,-0.021155,0,0.0018312,0,0,0,0.035889,0.0037453,0.01189,0.63557,0.017175,0.028945,9.2071e-07,0.26,0.83,0
0.015213,-0.0049282,0.036237,0.0037227,0.011988,0.00063819,0,0,0.058648,-0.019459,0,0.0033253,0,0,0,0.036256,0.0037032,0.011988,1.1765,0.017316,0.029318,9.6262e-07,0.27,0.83,0
0.015767,-0.0049387,0.036229,0.0022224,0.011536,0.00076715,0,0,0.048094,-0.016973,0,0.0034202,0,0,0,0.036262,0.0021897,0.011536,1.4138,0.016662,0.030526,1.0366e-06,0.28,0.83,0
0.016181,-0.0049884,0.035725,0.00018703,0.010774,0.00085092,0,0,0.037564,-0.015339,0,0.0029124,0,0,0,0.035761,0.00015091,0.010774,1.4873,0.015562,0.031682,1.0633e-06,0.29,0.83,0
0.016518,-0.0050774,0.035586,-0.00095937,0.010388,0.00070149,0,0,0.033436,-0.015014,0,0.0020006,0,0,0,0.035607,-0.0009801,0.010388,1.1436,0.015005,0.032434,1.0654e-06,0.3,0.83,0
0.016847,-0.0051759,0.03554,-0.0011616,0.010314,0.00052058,0,0,0.032795,-0.014918,0,0.0013535,0,0,0,0.035549,-0.0011701,0.010314,0.81261,0.014897,0.032534,1.0549e-06,0.31,0.83,0
0.017173,-0.0052745,0.035265,-0.0010913,0.010252,0.00044717,0,0,0.032517,-0.014746,0,0.0011626,0,0,0,0.035271,-0.0010973,0.010252,0.70449,0.014809,0.032229,1.0284e-06,0.32,0.83,0
0.017497,-0.0053754,0.035087,-0.0010437,0.010213,0.00036407,0,0,0.032336,-0.014634,0,0.00094658,0,0,0,0.035091,-0.0010476,0.010213,0.57707,0.014752,0.032029,1.0114e-06,0.33,0.83,0
0.01782,-0.0054783,0.034975,-0.000966,0.010203,0.00030067,0,0,0.032204,-0.014519,0,0.00078175,0,0,0,0.034978,-0.00096868,0.010203,0.47906,0.014737,0.031865,9.9949e-07,0.34,0.83,0
0.018142,-0.005583,0.034882,-0.00085938,0.010207,0.00024425,0,0,0.032078,-0.014386,0,0.00063504,0,0,0,0.034884,-0.00086121,0.010207,0.39129,0.014743,0.031695,9.8853e-07,0.35,0.83,0
0.018462,-0.0056893,0.034796,-0.00073513,0.010218,0.00018351,0,0,0.031951,-0.014239,0,0.00047712,0,0,0,0.034797,-0.00073623,0.010218,0.29567,0.01476,0.031518,9.7771e-07,0.36,0.83,0
0.018781,-0.0057972,0.034716,-0.00060277,0.010234,0.00011619,0,0,0.031827,-0.014088,0,0.00030209,0,0,0,0.034717,-0.0006033,0.010234,0.18824,0.014782,0.03134,9.6727e-07,0.37,0.83,0
0.019098,-0.0059068,0.034645,-0.00046775,0.010253,4.434e-05,0,0,0.031709,-0.013937,0,0.00011528,0,0,0,0.034645,-0.00046794,0.010253,0.072116,0.01481,0.031167,9.5748e-07,0.38,0.83,0
0.019415,-0.006018,0.034582,-0.00033328,0.010275,-2.9206e-05,0,0,0.031599,-0.01379,0,-7.5936e-05,0,0,0,0.034582,-0.00033343,0.010275,-0.048153,0.014841,0.031004,9.4846e-07,0.39,0.83,0
0.01973,-0.0061308,0.034527,-0.00020173,0.010298,-0.00010212,0,0,0.031498,-0.013649,0,-0.00026551,0,0,0,0.034527,-0.00020214,0.010298,-0.16868,0.014874,0.03085,9.4025e-07,0.4,0.83,0
0.020045,-0.0062451,0.03448,-7.5155e-05,0.010321,-0.00017273,0,0,0.031406,-0.013516,0,-0.0004491,0,0,0,0.034481,-7.6116e-05,0.010321,-0.28658,0.014909,0.030708,9.3285e-07,0.41,0.83,0
0.020358,-0.0063608,0.034441,4.4421e-05,0.010346,-0.00023985,0,0,0.031324,-0.013391,0,-0.00062362,0,0,0,0.034442,4.2667e-05,0.010346,-0.39968,0.014944,0.030579,9.263e-07,0.42,0.83,0
0.020671,-0.0064777,0.034409,0.00015503,0.010369,-0.0003026,0,0,0.031252,-0.013278,0,-0.00078676,0,0,0,0.034411,0.00015229,0.010369,-0.50624,0.014978,0.030464,9.2063e-07,0.43,0.83,0
0.020983,-0.0065957,0.034384,0.00025479,0.010392,-0.00036023,0,0,0.03119,-0.013178,0,-0.00093661,0,0,0,0.034388,0.00025094,0.010392,-0.60477,0.01501,0.030365,9.1588e-07,0.44,0.83,0
0.021295,-0.0067145,0.034367,0.00034197,0.010413,-0.00041212,0,0,0.031141,-0.013092,0,-0.0010715,0,0,0,0.034372,0.00033694,0.010413,-0.69393,0.015041,0.030282,9.1209e-07,0.45,0.83,0
0.021606,-0.0068341,0.034358,0.00041501,0.010432,-0.00045772,0,0,0.031104,-0.013022,0,-0.0011901,0,0,0,0.034364,0.00040881,0.010432,-0.77252,0.015068,0.030217,9.0932e-07,0.46,0.83,0
0.021917,-0.0069542,0.034356,0.00047254,0.010449,-0.00049659,0,0,0.03108,-0.012969,0,-0.0012911,0,0,0,0.034363,0.00046524,0.010449,-0.83953,0.015092,0.030172,9.0761e-07,0.47,0.83,0
0.022228,-0.0070746,0.034362,0.00051337,0.010463,-0.00052839,0,0,0.031069,-0.012934,0,-0.0013738,0,0,0,0.03437,0.00050511,0.010463,-0.89415,0.015113,0.030146,9.07e-07,0.48,0.83,0
0.022538,-0.0071951,0.034376,0.0005365,0.010474,-0.00055289,0,0,0.031073,-0.012919,0,-0.0014375,0,0,0,0.034385,0.00052745,0.010474,-0.93582,0.015129,0.030142,9.0752e-07,0.49,0.83,0
0.022849,-0.0073155,0.034399,0.00054102,0.010482,-0.00056994,0,0,0.031092,-0.012923,0,-0.0014818,0,0,0,0.034408,0.00053142,0.010482,-0.96417,0.015141,0.030159,9.0923e-07,0.5,0.83,0
0.02316,-0.0074356,0.03443,0.00052612,0.010487,-0.00057947,0,0,0.031126,-0.012949,0,-0.0015066,0,0,0,0.03444,0.00051619,0.010487,-0.97896,0.015148,0.030199,9.1219e-07,0.51,0.83,0
0.023472,-0.0075552,0.03447,0.00049094,0.010488,-0.0005813,0,0,0.031176,-0.012997,0,-0.0015114,0,0,0,0.03448,0.00048096,0.010488,-0.9799,0.01515,0.030263,9.1647e-07,0.52,0.83,0
0.023784,-0.0076742,0.034521,0.00043465,0.010487,-0.00057504,0,0,0.031244,-0.013067,0,-0.0014951,0,0,0,0.03453,0.0004249,0.010487,-0.96635,0.015147,0.030352,9.2218e-07,0.53,0.83,0
0.024097,-0.0077922,0.034582,0.00035663,0.010482,-0.00055991,0,0,0.03133,-0.013162,0,-0.0014558,0,0,0,0.034591,0.0003474,0.010482,-0.93716,0.01514,0.030468,9.2939e-07,0.54,0.83,0
0.02441,-0.0079091,0.034654,0.00025708,0.010473,-0.00053497,0,0,0.031435,-0.013281,0,-0.0013909,0,0,0,0.034663,0.00024866,0.010473,-0.89102,0.015128,0.030611,9.3814e-07,0.55,0.83,0
0.024725,-0.0080246,0.034737,0.00013845,0.010463,-0.00050041,0,0,0.031557,-0.013421,0,-0.0013011,0,0,0,0.034745,0.00013107,0.010463,-0.82871,0.015113,0.030777,9.483e-07,0.56,0.83,0
0.025042,-0.0081388,0.034831,7.3524e-06,0.010451,-0.00046107,0,0,0.031693,-0.013577,0,-0.0011988,0,0,0,0.034837,1.0821e-06,0.010451,-0.75871,0.015097,0.030963,9.5977e-07,0.57,0.83,0
0.025359,-0.0082515,0.034948,-0.00012739,0.010446,-0.00043104,0,0,0.031852,-0.013746,0,-0.0011207,0,0,0,0.034953,-0.00013291,0.010446,-0.7043,0.015089,0.031174,9.7342e-07,0.58,0.83,0
0.025679,-0.0083632,0.035136,-0.00026608,0.010461,-0.00042639,0,0,0.032077,-0.013945,0,-0.0011086,0,0,0,0.035141,-0.00027178,0.010461,-0.69063,0.01511,0.031452,9.9341e-07,0.59,0.83,0
0.026001,-0.008474,0.035424,-0.00046087,0.010489,-0.00042192,0,0,0.032416,-0.014235,0,-0.001097,0,0,0,0.03543,-0.00046712,0.010489,-0.67499,0.015151,0.031865,1.0241e-06,0.6,0.83,0
0.026327,-0.0085821,0.035488,-0.00042854,0.010518,-0.00053632,0,0,0.033133,-0.014486,0,-0.0015547,0,0,0,0.035503,-0.00044342,0.010518,-0.89749,0.015193,0.031911,1.0404e-06,0.61,0.83,0
0.026661,-0.0086967,0.035648,0.00052176,0.010851,-0.00063355,0,0,0.037344,-0.014975,0,-0.0022204,0,0,0,0.035674,0.00049549,0.010851,-1.1417,0.015673,0.031329,1.0443e-06,0.62,0.83,0
0.027074,-0.0088456,0.036181,0.0023755,0.011567,-0.00051773,0,0,0.047974,-0.016783,0,-0.002394,0,0,0,0.036203,0.0023537,0.011567,-0.98669,0.016708,0.030343,1.0247e-06,0.63,0.83,0
0.027626,-0.0090272,0.036227,0.0036909,0.011975,-0.00037897,0,0,0.058678,-0.019537,0,-0.0020479,0,0,0,0.036237,0.0036807,0.011975,-0.71284,0.017298,0.029319,9.6117e-07,0.64,0.83,0
0.028251,-0.0092018,0.035912,0.0035117,0.011827,-0.00010759,0,0,0.062621,-0.02162,0,-0.00055947,0,0,0,0.035916,0.0035077,0.011827,-0.19925,0.017084,0.029154,9.3152e-07,0.65,0.83,0
0.028879,-0.0093512,0.035722,0.0027422,0.011539,0.00027156,0,0,0.062875,-0.022872,0,0.0014121,0,0,0,0.035726,0.002738,0.011539,0.46781,0.016668,0.029587,9.438e-07,0.66,0.83,0
0.029508,-0.0094806,0.035539,0.00214,0.011304,0.0005442,0,0,0.063012,-0.023826,0,0.0028298,0,0,0,0.035549,0.00213,0.011304,0.93146,0.016328,0.029907,9.505e-07,0.67,0.83,0
0.030139,-0.0095934,0.03538,0.0016485,0.011109,0.00074171,0,0,0.063106,-0.024596,0,0.0038569,0,0,0,0.035397,0.0016315,0.011109,1.2585,0.016046,0.030166,9.5484e-07,0.68,0.83,0
0.030771,-0.0096924,0.035235,0.0012368,0.010942,0.00088283,0,0,0.063163,-0.025232,0,0.0045907,0,0,0,0.035258,0.0012134,0.010942,1.4866,0.015804,0.030373,9.571e-07,0.69,0.83,0
0.031402,-0.0097795,0.035098,0.00088832,0.010796,0.00098084,0,0,0.063185,-0.02576,0,0.0051004,0,0,0,0.035126,0.00085985,0.010796,1.6415,0.015594,0.030536,9.575e-07,0.7,0.83,0
0.032034,-0.0098566,0.034966,0.00059219,0.010668,0.0010461,0,0,0.063177,-0.026196,0,0.0054395,0,0,0,0.034998,0.00056007,0.010668,1.7422,0.015409,0.030661,9.563e-07,0.71,0.83,0
0.032666,-0.009925,0.034839,0.0003405,0.010554,0.0010865,0,0,0.063142,-0.026555,0,0.0056498,0,0,0,0.034874,0.00030604,0.010554,1.803,0.015245,0.030752,9.5378e-07,0.72,0.83,0
0.033297,-0.0099857,0.034717,0.00012693,0.010453,0.0011082,0,0,0.063085,-0.026848,0,0.0057629,0,0,0,0.034752,9.121e-05,0.010453,1.8342,0.015099,0.030816,9.502e-07,0.73,0.83,0
0.033928,-0.01004,0.034598,-5.3818e-05,0.010363,0.0011158,0,0,0.06301,-0.027084,0,0.0058023,0,0,0,0.034634,-8.9943e-05,0.010363,1.8434,0.014969,0.030855,9.4582e-07,0.74,0.83,0
0.034557,-0.010088,0.034484,-0.00020626,0.010283,0.0011126,0,0,0.062921,-0.027273,0,0.0057855,0,0,0,0.034519,-0.00024213,0.010283,1.836,0.014854,0.030875,9.4085e-07,0.75,0.83,0
0.035186,-0.010131,0.034374,-0.0003343,0.010212,0.001101,0,0,0.062822,-0.02742,0,0.0057251,0,0,0,0.034409,-0.00036939,0.010212,1.8159,0.014751,0.030879,9.3548e-07,0.76,0.83,0
0.035814,-0.010169,0.034269,-0.00044131,0.010148,0.0010828,0,0,0.062715,-0.027533,0,0.0056303,0,0,0,0.034303,-0.00047524,0.010148,1.7857,0.014659,0.03087,9.2986e-07,0.77,0.83,0
0.03644,-0.010202,0.03417,-0.00053024,0.010092,0.0010592,0,0,0.062603,-0.027618,0,0.0055078,0,0,0,0.034203,-0.00056271,0.010092,1.7474,0.014577,0.03085,9.2414e-07,0.78,0.83,0
0.037066,-0.010232,0.034076,-0.00060365,0.010042,0.0010312,0,0,0.062489,-0.027678,0,0.0053623,0,0,0,0.034107,-0.00063444,0.010042,1.7024,0.014505,0.030823,9.184e-07,0.79,0.83,0
0.03769,-0.010259,0.033988,-0.00066377,0.0099971,0.00099953,0,0,0.062375,-0.027718,0,0.0051976,0,0,0,0.034017,-0.00069272,0.0099971,1.6515,0.01444,0.030789,9.1274e-07,0.8,0.83,0
0.038313,-0.010282,0.033905,-0.00071256,0.0099576,0.00096465,0,0,0.062262,-0.027742,0,0.0050162,0,0,0,0.033932,-0.00073955,0.0099576,1.5955,0.014383,0.030751,9.0722e-07,0.81,0.83,0
0.038935,-0.010302,0.033827,-0.00075172,0.0099226,0.00092698,0,0,0.062152,-0.027753,0,0.0048203,0,0,0,0.033852,-0.00077667,0.0099226,1.535,0.014333,0.03071,9.0188e-07,0.82,0.83,0
0.039556,-0.01032,0.033755,-0.00078273,0.0098917,0.00088683,0,0,0.062045,-0.027754,0,0.0046115,0,0,0,0.033778,-0.0008056,0.0098917,1.4703,0.014288,0.030668,8.9678e-07,0.83,0.83,0
0.040176,-0.010336,0.033688,-0.0008069,0.0098644,0.00084446,0,0,0.061942,-0.027745,0,0.0043912,0,0,0,0.033709,-0.00082766,0.0098644,1.4019,0.014249,0.030624,8.9192e-07,0.84,0.83,0
0.040795,-0.01035,0.033627,-0.00082536,0.0098404,0.00080011,0,0,0.061845,-0.027731,0,0.0041606,0,0,0,0.033645,-0.00084403,0.0098404,1.33,0.014214,0.030581,8.8735e-07,0.85,0.83,0
0.041413,-0.010361,0.03357,-0.0008391,0.0098194,0.00075396,0,0,0.061753,-0.027712,0,0.0039206,0,0,0,0.033587,-0.00085569,0.0098194,1.2549,0.014184,0.030538,8.8306e-07,0.86,0.83,0
0.04203,-0.010371,0.033519,-0.00084896,0.0098009,0.0007062,0,0,0.061666,-0.02769,0,0.0036722,0,0,0,0.033533,-0.00086354,0.0098009,1.1769,0.014157,0.030497,8.7908e-07,0.87,0.83,0
0.042647,-0.01038,0.033472,-0.0008557,0.0097849,0.00065698,0,0,0.061586,-0.027665,0,0.0034163,0,0,0,0.033485,-0.00086834,0.0097849,1.0963,0.014134,0.030457,8.754e-07,0.88,0.83,0
0.043262,-0.010388,0.03343,-0.00085996,0.0097709,0.00060646,0,0,0.061513,-0.02764,0,0.0031536,0,0,0,0.03344,-0.00087075,0.0097709,1.0131,0.014114,0.03042,8.7203e-07,0.89,0.83,0
0.043877,-0.010394,0.033392,-0.00086228,0.0097588,0.00055477,0,0,0.061445,-0.027615,0,0.0028848,0,0,0,0.033401,-0.00087133,0.0097588,0.92781,0.014096,0.030385,8.6897e-07,0.9,0.83,0
0.044491,-0.010399,0.033358,-0.00086315,0.0097484,0.00050205,0,0,0.061385,-0.02759,0,0.0026107,0,0,0,0.033365,-0.00087058,0.0097484,0.84049,0.014081,0.030353,8.6621e-07,0.91,0.83,0
0.045104,-0.010404,0.033328,-0.00086298,0.0097396,0.00044843,0,0,0.06133,-0.027567,0,0.0023318,0,0,0,0.033334,-0.00086891,0.0097396,0.75142,0.014068,0.030324,8.6376e-07,0.92,0.83,0
0.045718,-0.010407,0.033302,-0.00086209,0.0097321,0.00039402,0,0,0.061283,-0.027545,0,0.0020489,0,0,0,0.033307,-0.00086669,0.0097321,0.66079,0.014057,0.030298,8.6161e-07,0.93,0.83,0
0.04633,-0.01041,0.03328,-0.00086079,0.0097258,0.00033894,0,0,0.061241,-0.027525,0,0.0017625,0,0,0,0.033284,-0.00086421,0.0097258,0.56883,0.014048,0.030275,8.5976e-07,0.94,0.83,0
0.046942,-0.010412,0.033262,-0.00085932,0.0097207,0.00028329,0,0,0.061207,-0.027508,0,0.0014731,0,0,0,0.033264,-0.00086172,0.0097207,0.47573,0.014041,0.030256,8.582e-07,0.95,0.83,0
0.047554,-0.010414,0.033247,-0.00085786,0.0097167,0.00022718,0,0,0.061178,-0.027494,0,0.0011813,0,0,0,0.033248,-0.00085942,0.0097167,0.38169,0.014035,0.03024,8.5692e-07,0.96,0.83,0
0.048166,-0.010416,0.033235,-0.00085657,0.0097136,0.0001707,0,0,0.061156,-0.027482,0,0.00088764,0,0,0,0.033236,-0.00085747,0.0097136,0.28691,0.014031,0.030228,8.5594e-07,0.97,0.83,0
0.048777,-0.010417,0.033227,-0.00085557,0.0097114,0.00011395,0,0,0.061141,-0.027474,0,0.00059253,0,0,0,0.033227,-0.000856,0.0097114,0.19158,0.014028,0.030219,8.5524e-07,0.98,0.83,0
0.049389,-0.010417,0.033222,-0.00085494,0.0097102,5.6137e-05,0,0,0.061131,-0.027469,0,0.00029191,0,0,0,0.033222,-0.00085508,0.0097102,0.0944,0.014026,0.030214,8.5482e-07,0.99,0.83,0
0.049694,-0.010417,0.033221,-0.00085472,0.0097097,2.6756e-05,0,0,0.061128,-0.027468,0,0.00013913,0,0,0,0.033221,-0.00085477,0.0097097,0.044998,0.014025,0.030212,8.5468e-07,1,0.83,0
0.00022872,-0.00014784,0.030754,0.012767,0.013056,-0.0056808,0,0,0.046014,-0.00075225,0,-0.02954,0,0,0,0.0324,0.011121,0.013056,-16.139,0.018859,0.020381,4.2158e-07,0,0.84,0
0.00046014,-0.00029589,0.030809,0.012372,0.012954,-0.0056725,0,0,0.046422,-0.001514,0,-0.029497,0,0,0,0.032417,0.010764,0.012954,-15.809,0.018712,0.020647,4.3494e-07,0.01,0.84,0
0.00092844,-0.00059212,0.031008,0.011612,0.012786,-0.0056441,0,0,0.047378,-0.0030534,0,-0.029349,0,0,0,0.032534,0.010086,0.012786,-15.108,0.018469,0.021229,4.6481e-07,0.02,0.84,0
0.0014077,-0.00088791,0.031297,0.010876,0.012652,-0.0055856,0,0,0.048477,-0.0046175,0,-0.029045,0,0,0,0.032728,0.0094448,0.012652,-14.349,0.018275,0.021858,4.9778e-07,0.03,0.84,0
0.001898,-0.0011818,0.031582,0.010134,0.012515,-0.0054896,0,0,0.049574,-0.0061899,0,-0.028546,0,0,0,0.032908,0.0088072,0.012515,-13.563,0.018077,0.022479,5.3039e-07,0.04,0.84,0
0.0023992,-0.0014724,0.031859,0.0093947,0.012376,-0.0053558,0,0,0.050656,-0.0077518,0,-0.02785,0,0,0,0.033074,0.0081798,0.012376,-12.755,0.017877,0.023085,5.6219e-07,0.05,0.84,0
0.0029111,-0.0017581,0.032126,0.0086672,0.012238,-0.0051858,0,0,0.051708,-0.0092837,0,-0.026966,0,0,0,0.033224,0.0075686,0.012238,-11.934,0.017677,0.02367,5.928e-07,0.06,0.84,0
0.0034333,-0.0020373,0.032378,0.0079599,0.012101,-0.004983,0,0,0.05272,-0.010768,0,-0.025911,0,0,0,0.033359,0.0069789,0.012101,-11.109,0.01748,0.02423,6.2194e-07,0.07,0.84,0
0.0039655,-0.0023088,0.032615,0.0072803,0.011969,-0.0047521,0,0,0.05368,-0.012189,0,-0.024711,0,0,0,0.03348,0.006415,0.011969,-10.289,0.017288,0.024761,6.494e-07,0.08,0.84,0
0.004507,-0.0025712,0.032834,0.0066343,0.011841,-0.0044989,0,0,0.054584,-0.013536,0,-0.023395,0,0,0,0.033588,0.0058802,0.011841,-9.4835,0.017103,0.025262,6.7512e-07,0.09,0.84,0
0.0050572,-0.0028236,0.033037,0.0060265,0.011719,-0.0042294,0,0,0.055427,-0.014801,0,-0.021993,0,0,0,0.033687,0.0053768,0.011719,-8.7002,0.016927,0.025732,6.991e-07,0.1,0.84,0
0.0056155,-0.0030651,0.033223,0.0054601,0.011605,-0.0039493,0,0,0.056208,-0.015977,0,-0.020536,0,0,0,0.033777,0.0049066,0.011605,-7.9456,0.016763,0.026173,7.2141e-07,0.11,0.84,0
0.0061813,-0.0032949,0.033395,0.0049372,0.0115,-0.0036642,0,0,0.056928,-0.017063,0,-0.019054,0,0,0,0.033862,0.0044705,0.0115,-7.2249,0.016611,0.026584,7.4218e-07,0.12,0.84,0
0.0067541,-0.0035126,0.033555,0.0044592,0.011404,-0.0033789,0,0,0.057592,-0.018057,0,-0.01757,0,0,0,0.033945,0.0040697,0.011404,-6.5417,0.016473,0.026967,7.6155e-07,0.13,0.84,0
0.0073332,-0.0037179,0.033705,0.0040269,0.01132,-0.0030974,0,0,0.058202,-0.018961,0,-0.016106,0,0,0,0.034027,0.0037051,0.01132,-5.8984,0.01635,0.027323,7.7968e-07,0.14,0.84,0
0.0079181,-0.0039105,0.033848,0.003641,0.011247,-0.0028228,0,0,0.058763,-0.019775,0,-0.014678,0,0,0,0.034111,0.0033777,0.011247,-5.2959,0.016245,0.027652,7.9671e-07,0.15,0.84,0
0.0085084,-0.0040903,0.033986,0.0033023,0.011186,-0.0025572,0,0,0.059278,-0.020499,0,-0.013297,0,0,0,0.034199,0.003089,0.011186,-4.7339,0.016158,0.027955,8.1275e-07,0.16,0.84,0
0.0091037,-0.0042573,0.034122,0.0030119,0.01114,-0.0023017,0,0,0.059752,-0.021133,0,-0.011969,0,0,0,0.034292,0.0028411,0.01114,-4.2106,0.016091,0.028232,8.2789e-07,0.17,0.84,0
0.0097035,-0.0044113,0.034258,0.0027714,0.011109,-0.0020564,0,0,0.060187,-0.021677,0,-0.010693,0,0,0,0.034393,0.0026363,0.011109,-3.7225,0.016046,0.028482,8.4219e-07,0.18,0.84,0
0.010307,-0.0045524,0.034396,0.002583,0.011094,-0.0018197,0,0,0.060586,-0.022128,0,-0.0094627,0,0,0,0.034501,0.002478,0.011094,-3.2645,0.016024,0.028702,8.5566e-07,0.19,0.84,0
0.010915,-0.0046803,0.034539,0.00245,0.011097,-0.001589,0,0,0.060951,-0.022482,0,-0.008263,0,0,0,0.034619,0.0023703,0.011097,-2.8291,0.016029,0.028892,8.6829e-07,0.2,0.84,0
0.011526,-0.0047947,0.034689,0.0023764,0.01112,-0.0013597,0,0,0.061281,-0.022732,0,-0.0070704,0,0,0,0.034748,0.0023181,0.01112,-2.4061,0.016062,0.029047,8.8001e-07,0.21,0.84,0
0.012141,-0.0048952,0.034848,0.0023684,0.011165,-0.001125,0,0,0.061576,-0.022871,0,-0.0058498,0,0,0,0.034888,0.0023281,0.011165,-1.9819,0.016127,0.029164,8.9071e-07,0.22,0.84,0
0.012758,-0.0049808,0.035017,0.0024343,0.011235,-0.00087546,0,0,0.061832,-0.022883,0,-0.0045524,0,0,0,0.035042,0.0024093,0.011235,-1.5382,0.016229,0.029236,9.0014e-07,0.23,0.84,0
0.013377,-0.0050502,0.035195,0.0025877,0.011335,-0.00059794,0,0,0.062037,-0.022743,0,-0.0031093,0,0,0,0.035208,0.0025749,0.011335,-1.0498,0.016373,0.029254,9.0775e-07,0.24,0.84,0
0.013999,-0.0051012,0.035376,0.0028513,0.011468,-0.00027146,0,0,0.062161,-0.022404,0,-0.0014116,0,0,0,0.035381,0.0028465,0.011468,-0.47669,0.016565,0.029195,9.122e-07,0.25,0.84,0
0.014621,-0.0051304,0.035535,0.0032659,0.01164,0.00016477,0,0,0.062126,-0.021773,0,0.00085679,0,0,0,0.03554,0.0032603,0.01164,0.29758,0.016814,0.029013,9.104e-07,0.26,0.84,0
0.015241,-0.0051287,0.036126,0.0033184,0.011833,0.00045497,0,0,0.05944,-0.020568,0,0.0024931,0,0,0,0.036139,0.0033055,0.011833,0.85106,0.017093,0.029515,9.8696e-07,0.27,0.84,0
0.015817,-0.0051153,0.036169,0.0022513,0.011526,0.00072616,0,0,0.051292,-0.018561,0,0.0034646,0,0,0,0.036208,0.0022128,0.011526,1.3994,0.016649,0.030446,1.0769e-06,0.28,0.84,0
0.016278,-0.0051456,0.035138,0.00049382,0.01069,0.0011045,0,0,0.040997,-0.0164,0,0.0042215,0,0,0,0.035199,0.00043282,0.01069,2.0267,0.015441,0.030959,1.0415e-06,0.29,0.84,0
0.016637,-0.005228,0.03495,-0.00073294,0.010265,0.0010002,0,0,0.034394,-0.015096,0,0.0031348,0,0,0,0.034989,-0.00077193,0.010265,1.6951,0.014828,0.031723,1.015e-06,0.3,0.84,0
0.016962,-0.0053245,0.035237,-0.0010447,0.010258,0.00068914,0,0,0.032473,-0.014693,0,0.0017918,0,0,0,0.035251,-0.0010585,0.010258,1.0885,0.014817,0.03218,1.0263e-06,0.31,0.84,0
0.017286,-0.0054215,0.035136,-0.0010249,0.010233,0.00055573,0,0,0.032373,-0.014636,0,0.0014449,0,0,0,0.035144,-0.0010339,0.010233,0.88044,0.014781,0.032065,1.0157e-06,0.32,0.84,0
0.01761,-0.0055215,0.035079,-0.0010036,0.010223,0.00045711,0,0,0.032314,-0.014594,0,0.0011885,0,0,0,0.035085,-0.0010095,0.010223,0.7256,0.014766,0.031993,1.0098e-06,0.33,0.84,0
0.017932,-0.0056234,0.035004,-0.00092103,0.010225,0.00039924,0,0,0.032213,-0.01449,0,0.001038,0,0,0,0.035009,-0.00092565,0.010225,0.63646,0.014769,0.031858,1.0009e-06,0.34,0.84,0
0.018254,-0.0057266,0.034909,-0.00079934,0.010233,0.00034199,0,0,0.032079,-0.014342,0,0.00088917,0,0,0,0.034913,-0.00080282,0.010233,0.54845,0.014781,0.031674,9.8931e-07,0.35,0.84,0
0.018574,-0.0058314,0.03481,-0.00066394,0.010244,0.00027349,0,0,0.031936,-0.01418,0,0.00071108,0,0,0,0.034813,-0.00066626,0.010244,0.44146,0.014797,0.031475,9.7705e-07,0.36,0.84,0
0.018893,-0.0059378,0.034719,-0.0005258,0.010258,0.00019599,0,0,0.0318,-0.014019,0,0.00050959,0,0,0,0.034721,-0.00052708,0.010258,0.31836,0.014817,0.031282,9.6543e-07,0.37,0.84,0
0.01921,-0.0060458,0.03464,-0.00038882,0.010275,0.00011421,0,0,0.031674,-0.013863,0,0.00029694,0,0,0,0.03464,-0.00038937,0.010275,0.18657,0.014842,0.0311,9.5485e-07,0.38,0.84,0
0.019526,-0.0061556,0.03457,-0.00025495,0.010295,3.1706e-05,0,0,0.031558,-0.013714,0,8.2437e-05,0,0,0,0.034571,-0.00025513,0.010295,0.051935,0.01487,0.030931,9.4529e-07,0.39,0.84,0
0.019841,-0.006267,0.03451,-0.00012559,0.010315,-4.9299e-05,0,0,0.031453,-0.013573,0,-0.00012818,0,0,0,0.03451,-0.0001258,0.010315,-0.081766,0.0149,0.030774,9.3668e-07,0.4,0.84,0
0.020155,-0.00638,0.034458,-2.2618e-06,0.010337,-0.00012748,0,0,0.031358,-0.013441,0,-0.00033146,0,0,0,0.034459,-2.8527e-06,0.010337,-0.21215,0.014931,0.03063,9.2896e-07,0.41,0.84,0
0.020468,-0.0064944,0.034414,0.00011327,0.010358,-0.00020197,0,0,0.031273,-0.013318,0,-0.00052513,0,0,0,0.034416,0.00011198,0.010358,-0.33753,0.014962,0.0305,9.2212e-07,0.42,0.84,0
0.020781,-0.0066102,0.034377,0.00021914,0.010379,-0.00027207,0,0,0.031198,-0.013208,0,-0.00070739,0,0,0,0.03438,0.00021689,0.010379,-0.45646,0.014992,0.030384,9.162e-07,0.43,0.84,0
0.021092,-0.0067271,0.034348,0.0003135,0.010398,-0.00033713,0,0,0.031135,-0.01311,0,-0.00087654,0,0,0,0.034352,0.0003101,0.010398,-0.56759,0.01502,0.030285,9.1122e-07,0.44,0.84,0
0.021403,-0.0068451,0.034326,0.0003947,0.010416,-0.00039656,0,0,0.031083,-0.013028,0,-0.001031,0,0,0,0.034331,0.00039002,0.010416,-0.66958,0.015046,0.030203,9.0725e-07,0.45,0.84,0
0.021714,-0.006964,0.034312,0.00046126,0.010432,-0.00044981,0,0,0.031044,-0.012962,0,-0.0011695,0,0,0,0.034318,0.00045525,0.010432,-0.76123,0.015068,0.03014,9.0431e-07,0.46,0.84,0
0.022024,-0.0070836,0.034306,0.00051192,0.010445,-0.00049646,0,0,0.031019,-0.012913,0,-0.0012908,0,0,0,0.034313,0.0005046,0.010445,-0.84152,0.015088,0.030096,9.0245e-07,0.47,0.84,0
0.022334,-0.0072037,0.034307,0.0005456,0.010456,-0.00053617,0,0,0.031007,-0.012883,0,-0.001394,0,0,0,0.034316,0.00053707,0.010456,-0.90964,0.015103,0.030072,9.0171e-07,0.48,0.84,0
0.022644,-0.007324,0.034317,0.00056144,0.010463,-0.00056876,0,0,0.031009,-0.012873,0,-0.0014788,0,0,0,0.034326,0.00055184,0.010463,-0.96506,0.015114,0.03007,9.0212e-07,0.49,0.84,0
0.022954,-0.0074445,0.034335,0.00055868,0.010468,-0.00059421,0,0,0.031027,-0.012882,0,-0.001545,0,0,0,0.034345,0.00054821,0.010468,-1.0076,0.015121,0.03009,9.0373e-07,0.5,0.84,0
0.023265,-0.0075649,0.034362,0.00053661,0.01047,-0.00061267,0,0,0.03106,-0.012913,0,-0.0015929,0,0,0,0.034373,0.0005255,0.01047,-1.0374,0.015123,0.030132,9.066e-07,0.51,0.84,0
0.023576,-0.0076851,0.034399,0.00049438,0.010468,-0.00062432,0,0,0.03111,-0.012966,0,-0.0016232,0,0,0,0.03441,0.00048285,0.010468,-1.0546,0.01512,0.030199,9.1084e-07,0.52,0.84,0
0.023887,-0.0078047,0.034447,0.00043084,0.010463,-0.00062917,0,0,0.031179,-0.013042,0,-0.0016358,0,0,0,0.034459,0.00041916,0.010463,-1.0594,0.015114,0.030293,9.1659e-07,0.53,0.84,0
0.024199,-0.0079237,0.034508,0.00034474,0.010456,-0.00062665,0,0,0.031268,-0.013144,0,-0.0016293,0,0,0,0.03452,0.00033318,0.010456,-1.0506,0.015103,0.030416,9.2404e-07,0.54,0.84,0
0.024512,-0.0080419,0.034583,0.00023539,0.010446,-0.00061514,0,0,0.031379,-0.013273,0,-0.0015994,0,0,0,0.034594,0.00022427,0.010446,-1.0259,0.015088,0.030569,9.3331e-07,0.55,0.84,0
0.024827,-0.0081589,0.03467,0.00010409,0.010432,-0.00059226,0,0,0.031509,-0.013427,0,-0.0015399,0,0,0,0.03468,9.3798e-05,0.010432,-0.9816,0.015069,0.03075,9.4415e-07,0.56,0.84,0
0.025143,-0.0082746,0.034757,-4.0808e-05,0.010415,-0.00055834,0,0,0.031645,-0.013592,0,-0.0014517,0,0,0,0.034766,-4.9926e-05,0.010415,-0.91927,0.015044,0.030941,9.5543e-07,0.57,0.84,0
0.02546,-0.0083889,0.03483,-0.00017639,0.010396,-0.00052772,0,0,0.031764,-0.013744,0,-0.0013721,0,0,0,0.034838,-0.00018446,0.010396,-0.86369,0.015016,0.031112,9.6527e-07,0.58,0.84,0
0.025778,-0.0085023,0.034886,-0.00028247,0.010381,-0.00054275,0,0,0.031857,-0.013863,0,-0.0014111,0,0,0,0.034895,-0.00029106,0.010381,-0.88418,0.014995,0.031248,9.7334e-07,0.59,0.84,0
0.026097,-0.0086158,0.034991,-0.00041686,0.010372,-0.0006015,0,0,0.032004,-0.014026,0,-0.0015639,0,0,0,0.035001,-0.00042761,0.010372,-0.97407,0.014982,0.031452,9.87e-07,0.6,0.84,0
0.026418,-0.0087274,0.034709,-0.00026659,0.010333,-0.00085058,0,0,0.033969,-0.014557,0,-0.0026955,0,0,0,0.03474,-0.00029701,0.010333,-1.4769,0.014925,0.031121,9.803e-07,0.61,0.84,0
0.026772,-0.00885,0.034907,0.00077905,0.010706,-0.00091033,0,0,0.040593,-0.015977,0,-0.0035228,0,0,0,0.034956,0.00073023,0.010706,-1.7199,0.015464,0.030506,1.011e-06,0.62,0.84,0
0.027229,-0.0090197,0.035959,0.0023857,0.011503,-0.00050692,0,0,0.050917,-0.01826,0,-0.0025056,0,0,0,0.035989,0.0023562,0.011503,-1.0291,0.016616,0.030138,1.0516e-06,0.63,0.84,0
0.027802,-0.0092277,0.03595,0.0032953,0.011774,-0.00022964,0,0,0.059167,-0.020497,0,-0.0013712,0,0,0,0.035957,0.0032879,0.011774,-0.45527,0.017006,0.029367,9.7172e-07,0.64,0.84,0
0.02842,-0.0094208,0.035393,0.0030531,0.011534,4.2832e-05,0,0,0.062034,-0.02205,0,0.00022273,0,0,0,0.035397,0.0030489,0.011534,0.068562,0.01666,0.029051,9.0654e-07,0.65,0.84,0
0.029042,-0.0095815,0.035267,0.0024238,0.011307,0.00043671,0,0,0.062295,-0.023097,0,0.0022709,0,0,0,0.035274,0.0024163,0.011307,0.75923,0.016333,0.029438,9.185e-07,0.66,0.84,0
0.029666,-0.0097195,0.035119,0.0019148,0.01111,0.00069776,0,0,0.062423,-0.023908,0,0.0036284,0,0,0,0.035135,0.0018992,0.01111,1.2025,0.016048,0.029721,9.2463e-07,0.67,0.84,0
0.030291,-0.0098395,0.034974,0.0014889,0.010939,0.00088458,0,0,0.062491,-0.02457,0,0.0045998,0,0,0,0.034998,0.0014648,0.010939,1.5122,0.0158,0.029942,9.2776e-07,0.68,0.84,0
0.030916,-0.0099443,0.034836,0.0011256,0.010789,0.0010172,0,0,0.062524,-0.025124,0,0.0052894,0,0,0,0.034868,0.0010945,0.010789,1.7273,0.015584,0.03012,9.2903e-07,0.69,0.84,0
0.031541,-0.010036,0.034708,0.00081344,0.010656,0.0011086,0,0,0.062534,-0.025592,0,0.0057649,0,0,0,0.034744,0.00077689,0.010656,1.8722,0.015393,0.030263,9.2894e-07,0.7,0.84,0
0.032167,-0.010118,0.034587,0.00054471,0.010539,0.0011686,0,0,0.062523,-0.025986,0,0.0060767,0,0,0,0.034627,0.00050437,0.010539,1.9647,0.015224,0.030375,9.2772e-07,0.71,0.84,0
0.032792,-0.010189,0.034472,0.00031373,0.010436,0.0012045,0,0,0.062494,-0.026317,0,0.0062633,0,0,0,0.034514,0.00027107,0.010436,2.018,0.015074,0.030461,9.2557e-07,0.72,0.84,0
0.033417,-0.010253,0.034362,0.00011587,0.010343,0.0012219,0,0,0.062448,-0.026591,0,0.006354,0,0,0,0.034406,7.2121e-05,0.010343,2.0419,0.01494,0.030523,9.2262e-07,0.73,0.84,0
0.034041,-0.010309,0.034257,-5.2841e-05,0.010261,0.0012252,0,0,0.062389,-0.026817,0,0.0063711,0,0,0,0.034301,-9.6731e-05,0.010261,2.0435,0.014822,0.030565,9.1903e-07,0.74,0.84,0
0.034664,-0.010359,0.034156,-0.00019596,0.010188,0.0012175,0,0,0.062318,-0.026999,0,0.0063311,0,0,0,0.0342,-0.00023924,0.010188,2.0282,0.014716,0.030589,9.1495e-07,0.75,0.84,0
0.035287,-0.010403,0.03406,-0.00031666,0.010123,0.0012013,0,0,0.062237,-0.027143,0,0.0062465,0,0,0,0.034103,-0.00035875,0.010123,1.9997,0.014622,0.030598,9.1051e-07,0.76,0.84,0
0.035909,-0.010443,0.033969,-0.00041778,0.010065,0.0011782,0,0,0.062149,-0.027256,0,0.0061265,0,0,0,0.034009,-0.00045826,0.010065,1.9608,0.014539,0.030595,9.0583e-07,0.77,0.84,0
0.03653,-0.010477,0.033882,-0.00050189,0.010014,0.0011496,0,0,0.062057,-0.027342,0,0.0059779,0,0,0,0.033921,-0.00054043,0.010014,1.9135,0.014465,0.030582,9.0102e-07,0.78,0.84,0
0.03715,-0.010508,0.0338,-0.00057128,0.0099687,0.0011165,0,0,0.061962,-0.027404,0,0.0058059,0,0,0,0.033837,-0.00060764,0.0099687,1.8592,0.014399,0.030561,8.9617e-07,0.79,0.84,0
0.037769,-0.010534,0.033723,-0.00062798,0.0099285,0.0010797,0,0,0.061866,-0.027447,0,0.0056142,0,0,0,0.033757,-0.000662,0.0099285,1.7991,0.014341,0.030534,8.9134e-07,0.8,0.84,0
0.038388,-0.010558,0.033651,-0.00067381,0.009893,0.0010396,0,0,0.06177,-0.027474,0,0.0054059,0,0,0,0.033682,-0.00070538,0.009893,1.7338,0.01429,0.030502,8.8661e-07,0.81,0.84,0
0.039005,-0.010579,0.033583,-0.00071037,0.0098618,0.00099678,0,0,0.061675,-0.027488,0,0.0051832,0,0,0,0.033612,-0.00073943,0.0098618,1.664,0.014245,0.030467,8.8201e-07,0.82,0.84,0
0.039621,-0.010597,0.03352,-0.0007391,0.0098343,0.00095156,0,0,0.061583,-0.027491,0,0.0049481,0,0,0,0.033547,-0.00076561,0.0098343,1.5902,0.014205,0.03043,8.7759e-07,0.83,0.84,0
0.040236,-0.010612,0.033462,-0.00076123,0.0098102,0.00090423,0,0,0.061495,-0.027486,0,0.004702,0,0,0,0.033486,-0.0007852,0.0098102,1.5128,0.01417,0.030392,8.7338e-07,0.84,0.84,0
0.040851,-0.010626,0.033409,-0.00077787,0.0097892,0.00085504,0,0,0.06141,-0.027474,0,0.0044462,0,0,0,0.03343,-0.00079933,0.0097892,1.4322,0.01414,0.030353,8.694e-07,0.85,0.84,0
0.041465,-0.010637,0.033359,-0.00078998,0.0097709,0.00080421,0,0,0.06133,-0.027458,0,0.0041819,0,0,0,0.033378,-0.00080899,0.0097709,1.3486,0.014113,0.030315,8.6567e-07,0.86,0.84,0
0.042078,-0.010647,0.033315,-0.00079839,0.0097549,0.00075193,0,0,0.061256,-0.027439,0,0.00391,0,0,0,0.033331,-0.00081503,0.0097549,1.2624,0.01409,0.030278,8.6219e-07,0.87,0.84,0
0.04269,-0.010656,0.033274,-0.00080383,0.0097411,0.00069836,0,0,0.061186,-0.027417,0,0.0036315,0,0,0,0.033289,-0.00081821,0.0097411,1.1737,0.01407,0.030243,8.5897e-07,0.88,0.84,0
0.043301,-0.010663,0.033238,-0.00080694,0.0097292,0.00064366,0,0,0.061122,-0.027394,0,0.003347,0,0,0,0.03325,-0.00081917,0.0097292,1.0829,0.014053,0.030209,8.5603e-07,0.89,0.84,0
0.043912,-0.010669,0.033205,-0.00080825,0.009719,0.00058797,0,0,0.061063,-0.027371,0,0.0030574,0,0,0,0.033215,-0.00081848,0.009719,0.99021,0.014039,0.030178,8.5335e-07,0.9,0.84,0
0.044523,-0.010674,0.033176,-0.00080824,0.0097103,0.0005314,0,0,0.061011,-0.027348,0,0.0027633,0,0,0,0.033184,-0.0008166,0.0097103,0.89578,0.014026,0.030149,8.5094e-07,0.91,0.84,0
0.045132,-0.010678,0.03315,-0.00080729,0.0097029,0.00047409,0,0,0.060963,-0.027327,0,0.0024653,0,0,0,0.033157,-0.00081396,0.0097029,0.79984,0.014015,0.030123,8.488e-07,0.92,0.84,0
0.045742,-0.010681,0.033128,-0.00080574,0.0096967,0.00041614,0,0,0.060922,-0.027306,0,0.0021639,0,0,0,0.033133,-0.0008109,0.0096967,0.70259,0.014006,0.030099,8.4692e-07,0.93,0.84,0
0.046351,-0.010684,0.033109,-0.00080389,0.0096916,0.00035764,0,0,0.060886,-0.027288,0,0.0018597,0,0,0,0.033113,-0.00080772,0.0096916,0.60422,0.013999,0.030078,8.453e-07,0.94,0.84,0
0.04696,-0.010686,0.033094,-0.00080195,0.0096875,0.0002987,0,0,0.060856,-0.027273,0,0.0015532,0,0,0,0.033096,-0.00080464,0.0096875,0.50492,0.013993,0.030061,8.4393e-07,0.95,0.84,0
0.047568,-0.010688,0.033081,-0.00080012,0.0096842,0.00023938,0,0,0.060831,-0.027259,0,0.0012448,0,0,0,0.033083,-0.00080187,0.0096842,0.40484,0.013988,0.030047,8.4282e-07,0.96,0.84,0
0.048176,-0.010689,0.033071,-0.00079855,0.0096817,0.00017978,0,0,0.060812,-0.027249,0,0.00093486,0,0,0,0.033072,-0.00079956,0.0096817,0.30415,0.013985,0.030035,8.4196e-07,0.97,0.84,0
0.048784,-0.01069,0.033064,-0.00079735,0.00968,0.00011997,0,0,0.060798,-0.027241,0,0.00062384,0,0,0,0.033064,-0.00079783,0.00968,0.20302,0.013982,0.030027,8.4135e-07,0.98,0.84,0
0.049392,-0.010691,0.03306,-0.0007966,0.009679,5.9215e-05,0,0,0.06079,-0.027236,0,0.00030792,0,0,0,0.03306,-0.00079676,0.009679,0.10022,0.013981,0.030022,8.4098e-07,0.99,0.84,0
0.049696,-0.010691,0.033058,-0.00079634,0.0096786,2.8409e-05,0,0,0.060787,-0.027235,0,0.00014773,0,0,0,0.033058,-0.00079639,0.0096786,0.048088,0.01398,0.030021,8.4086e-07,1,0.84,0
0.00022925,-0.00015551,0.030825,0.012781,0.013082,-0.0059757,0,0,0.046132,-0.00078231,0,-0.031074,0,0,0,0.032626,0.010979,0.013082,-16.759,0.018896,0.020677,4.3821e-07,0,0.85,0
0.00046132,-0.00031134,0.030882,0.012368,0.012975,-0.005968,0,0,0.046558,-0.0015774,0,-0.031034,0,0,0,0.032642,0.010608,0.012975,-16.412,0.018742,0.020953,4.5214e-07,0.01,0.85,0
0.00093115,-0.0006233,0.031089,0.011572,0.012798,-0.0059402,0,0,0.047556,-0.0031889,0,-0.030889,0,0,0,0.032758,0.0099027,0.012798,-15.674,0.018486,0.021556,4.8338e-07,0.02,0.85,0
0.0014124,-0.00093511,0.031387,0.010796,0.012655,-0.0058795,0,0,0.048704,-0.0048328,0,-0.030573,0,0,0,0.032951,0.0092324,0.012655,-14.875,0.01828,0.022208,5.1788e-07,0.03,0.85,0
0.0019052,-0.0012452,0.03168,0.010013,0.012508,-0.0057768,0,0,0.049848,-0.0064868,0,-0.030039,0,0,0,0.033128,0.0085657,0.012508,-14.044,0.018067,0.022849,5.5177e-07,0.04,0.85,0
0.0024094,-0.0015517,0.031963,0.0092335,0.012359,-0.0056316,0,0,0.050971,-0.0081261,0,-0.029285,0,0,0,0.033285,0.0079111,0.012359,-13.189,0.017852,0.02347,5.8447e-07,0.05,0.85,0
0.0029246,-0.001853,0.032231,0.008469,0.01221,-0.0054463,0,0,0.052054,-0.0097265,0,-0.028321,0,0,0,0.033423,0.0072766,0.01221,-12.322,0.017637,0.024064,6.155e-07,0.06,0.85,0
0.0034505,-0.0021474,0.03248,0.0077297,0.012063,-0.0052252,0,0,0.053084,-0.011266,0,-0.027171,0,0,0,0.033541,0.0066683,0.012063,-11.454,0.017424,0.024624,6.445e-07,0.07,0.85,0
0.0039863,-0.0024333,0.032708,0.0070244,0.01192,-0.0049746,0,0,0.05405,-0.012728,0,-0.025868,0,0,0,0.033642,0.0060911,0.01192,-10.595,0.017218,0.025149,6.713e-07,0.08,0.85,0
0.0045315,-0.0027093,0.032915,0.0063593,0.011782,-0.0047014,0,0,0.054945,-0.0141,0,-0.024447,0,0,0,0.033726,0.0055484,0.011782,-9.7558,0.017019,0.025636,6.9583e-07,0.09,0.85,0
0.0050852,-0.0029744,0.0331,0.0057391,0.011652,-0.0044127,0,0,0.055766,-0.015373,0,-0.022946,0,0,0,0.033797,0.0050421,0.011652,-8.9446,0.01683,0.026087,7.1817e-07,0.1,0.85,0
0.0056468,-0.0032276,0.033266,0.0051665,0.01153,-0.0041153,0,0,0.056514,-0.016544,0,-0.021399,0,0,0,0.033859,0.0045735,0.01153,-8.1681,0.016654,0.026502,7.3844e-07,0.11,0.85,0
0.0062155,-0.0034682,0.033414,0.0046428,0.011417,-0.0038152,0,0,0.057192,-0.017613,0,-0.019839,0,0,0,0.033914,0.004143,0.011417,-7.4313,0.016491,0.026883,7.5686e-07,0.12,0.85,0
0.0067906,-0.0036958,0.033547,0.0041686,0.011315,-0.0035177,0,0,0.057804,-0.01858,0,-0.018292,0,0,0,0.033965,0.003751,0.011315,-6.7375,0.016343,0.027232,7.7364e-07,0.13,0.85,0
0.0073716,-0.00391,0.033669,0.0037436,0.011224,-0.003227,0,0,0.058357,-0.019448,0,-0.01678,0,0,0,0.034015,0.0033976,0.011224,-6.0884,0.016212,0.027551,7.8899e-07,0.14,0.85,0
0.0079578,-0.0041105,0.033782,0.0033676,0.011145,-0.002946,0,0,0.058856,-0.020221,0,-0.015319,0,0,0,0.034066,0.0030832,0.011145,-5.4845,0.016098,0.027842,8.0311e-07,0.15,0.85,0
0.0085487,-0.0042974,0.03389,0.0030403,0.011079,-0.0026768,0,0,0.059308,-0.020901,0,-0.013919,0,0,0,0.034122,0.0028083,0.011079,-4.9248,0.016003,0.028106,8.1618e-07,0.16,0.85,0
0.0091439,-0.0044705,0.033995,0.0027618,0.011027,-0.0024203,0,0,0.059717,-0.02149,0,-0.012586,0,0,0,0.034183,0.002574,0.011027,-4.4068,0.015928,0.028344,8.2833e-07,0.17,0.85,0
0.0097431,-0.0046298,0.0341,0.0025324,0.01099,-0.0021763,0,0,0.060087,-0.021989,0,-0.011317,0,0,0,0.034251,0.0023818,0.01099,-3.9268,0.015874,0.028555,8.3966e-07,0.18,0.85,0
0.010346,-0.0047752,0.034208,0.002353,0.010968,-0.0019432,0,0,0.060423,-0.0224,0,-0.010105,0,0,0,0.034327,0.0022338,0.010968,-3.4793,0.015843,0.028739,8.5023e-07,0.19,0.85,0
0.010951,-0.0049065,0.03432,0.0022252,0.010964,-0.0017181,0,0,0.060727,-0.02272,0,-0.0089343,0,0,0,0.034413,0.0021325,0.010964,-3.0567,0.015836,0.028895,8.6008e-07,0.2,0.85,0
0.01156,-0.0050233,0.034439,0.0021514,0.010977,-0.0014964,0,0,0.061001,-0.022947,0,-0.0077814,0,0,0,0.034509,0.0020811,0.010977,-2.6489,0.015856,0.029021,8.692e-07,0.21,0.85,0
0.012172,-0.0051251,0.034566,0.0021346,0.01101,-0.001271,0,0,0.061245,-0.023076,0,-0.0066094,0,0,0,0.034617,0.0020838,0.01101,-2.2417,0.015904,0.029115,8.775e-07,0.22,0.85,0
0.012785,-0.0052109,0.034701,0.0021796,0.011064,-0.0010313,0,0,0.061455,-0.0231,0,-0.005363,0,0,0,0.034735,0.0021457,0.011064,-1.8152,0.015981,0.029171,8.847e-07,0.23,0.85,0
0.013401,-0.0052791,0.034837,0.0022925,0.011139,-0.0007602,0,0,0.061615,-0.023001,0,-0.003953,0,0,0,0.034857,0.0022731,0.011139,-1.3374,0.016089,0.029179,8.9008e-07,0.24,0.85,0
0.014017,-0.0053271,0.034954,0.0024794,0.01123,-0.00042599,0,0,0.061683,-0.022752,0,-0.0022152,0,0,0,0.034962,0.0024714,0.01123,-0.75011,0.016221,0.029117,8.9179e-07,0.25,0.85,0
0.014634,-0.0053506,0.035031,0.0027494,0.011334,3.9928e-05,0,0,0.061611,-0.02232,0,0.00020762,0,0,0,0.035036,0.0027442,0.011334,0.075564,0.016371,0.028969,8.8843e-07,0.26,0.85,0
0.01525,-0.005341,0.035324,0.0028278,0.011446,0.00048493,0,0,0.060729,-0.021874,0,0.0025807,0,0,0,0.035337,0.0028152,0.011446,0.87823,0.016533,0.029181,9.2653e-07,0.27,0.85,0
0.015853,-0.005312,0.035273,0.0019853,0.011178,0.0008593,0,0,0.055817,-0.020658,0,0.0042969,0,0,0,0.035312,0.0019464,0.011178,1.5805,0.016145,0.029861,9.7113e-07,0.28,0.85,0
0.016372,-0.0053162,0.034655,0.00041932,0.010522,0.0011412,0,0,0.045131,-0.017794,0,0.0047996,0,0,0,0.034715,0.00035913,0.010522,2.055,0.015199,0.030604,9.597e-07,0.29,0.85,0
0.016755,-0.0053785,0.034656,-0.00061031,0.010214,0.0010034,0,0,0.035342,-0.015181,0,0.0032854,0,0,0,0.034696,-0.00065022,0.010214,1.6996,0.014753,0.031375,9.71e-07,0.3,0.85,0
0.017076,-0.0054697,0.035012,-0.00089935,0.010234,0.00069212,0,0,0.032211,-0.014473,0,0.0017995,0,0,0,0.035026,-0.00091386,0.010234,1.104,0.014782,0.031864,1.0029e-06,0.31,0.85,0
0.017399,-0.0055673,0.035102,-0.00099452,0.010232,0.00057217,0,0,0.03233,-0.014595,0,0.0014876,0,0,0,0.035111,-0.0010038,0.010232,0.90813,0.01478,0.032012,1.0121e-06,0.32,0.85,0
0.017723,-0.0056673,0.035112,-0.00098366,0.010238,0.00054481,0,0,0.032335,-0.014589,0,0.0014165,0,0,0,0.03512,-0.00099207,0.010238,0.86434,0.014789,0.03201,1.0123e-06,0.33,0.85,0
0.018046,-0.0057681,0.03503,-0.00086816,0.010248,0.00051572,0,0,0.032215,-0.014452,0,0.0013409,0,0,0,0.035037,-0.00087584,0.010248,0.82273,0.014803,0.031843,1.0019e-06,0.34,0.85,0
0.018367,-0.0058698,0.03491,-0.00072411,0.010256,0.00045517,0,0,0.03205,-0.014274,0,0.0011834,0,0,0,0.034916,-0.00073021,0.010256,0.73152,0.014814,0.031619,9.8756e-07,0.35,0.85,0
0.018687,-0.0059729,0.034796,-0.00057926,0.010265,0.00037279,0,0,0.03189,-0.014098,0,0.00096925,0,0,0,0.0348,-0.00058344,0.010265,0.60348,0.014827,0.031398,9.7365e-07,0.36,0.85,0
0.019005,-0.0060776,0.034699,-0.00043752,0.010278,0.00028129,0,0,0.031747,-0.013931,0,0.00073134,0,0,0,0.034701,-0.00044,0.010278,0.45841,0.014847,0.031195,9.6135e-07,0.37,0.85,0
0.019322,-0.0061841,0.034617,-0.00030054,0.010295,0.00018789,0,0,0.031618,-0.013774,0,0.00048852,0,0,0,0.034618,-0.00030175,0.010295,0.30806,0.01487,0.03101,9.5051e-07,0.38,0.85,0
0.019638,-0.0062923,0.034546,-0.00016864,0.010313,9.5983e-05,0,0,0.031502,-0.013626,0,0.00024955,0,0,0,0.034546,-0.00016908,0.010313,0.15818,0.014897,0.03084,9.4083e-07,0.39,0.85,0
0.019952,-0.0064023,0.034484,-4.2184e-05,0.010332,7.0032e-06,0,0,0.031397,-0.013487,0,1.8208e-05,0,0,0,0.034484,-4.2344e-05,0.010332,0.011404,0.014925,0.030684,9.3213e-07,0.4,0.85,0
0.020265,-0.006514,0.03443,7.7702e-05,0.010352,-7.8488e-05,0,0,0.031301,-0.013357,0,-0.00020407,0,0,0,0.03443,7.7383e-05,0.010352,-0.13111,0.014953,0.03054,9.243e-07,0.41,0.85,0
0.020578,-0.0066272,0.034383,0.00018925,0.010372,-0.00016012,0,0,0.031215,-0.013237,0,-0.00041632,0,0,0,0.034384,0.00018838,0.010372,-0.26847,0.014981,0.03041,9.1734e-07,0.42,0.85,0
0.02089,-0.0067419,0.034343,0.0002905,0.01039,-0.00023743,0,0,0.031139,-0.013129,0,-0.00061732,0,0,0,0.034345,0.00028874,0.01039,-0.39962,0.015008,0.030296,9.113e-07,0.43,0.85,0
0.021201,-0.0068579,0.03431,0.0003796,0.010407,-0.00030984,0,0,0.031074,-0.013036,0,-0.00080558,0,0,0,0.034313,0.00037668,0.010407,-0.52326,0.015032,0.030198,9.0621e-07,0.44,0.85,0
0.021511,-0.0069751,0.034285,0.00045494,0.010422,-0.00037675,0,0,0.031022,-0.012957,0,-0.00097955,0,0,0,0.034289,0.00045068,0.010422,-0.63806,0.015054,0.030117,9.0213e-07,0.45,0.85,0
0.021821,-0.0070933,0.034267,0.00051515,0.010435,-0.00043763,0,0,0.030982,-0.012895,0,-0.0011378,0,0,0,0.034273,0.00050942,0.010435,-0.74279,0.015072,0.030056,8.991e-07,0.46,0.85,0
0.022131,-0.0072124,0.034257,0.00055907,0.010445,-0.00049203,0,0,0.030955,-0.012851,0,-0.0012793,0,0,0,0.034264,0.00055184,0.010445,-0.8364,0.015087,0.030014,8.9716e-07,0.47,0.85,0
0.02244,-0.0073322,0.034254,0.00058574,0.010452,-0.00053965,0,0,0.030943,-0.012826,0,-0.0014031,0,0,0,0.034263,0.00057706,0.010452,-0.91807,0.015097,0.029993,8.9633e-07,0.48,0.85,0
0.02275,-0.0074525,0.03426,0.00059444,0.010456,-0.00058031,0,0,0.030944,-0.01282,0,-0.0015088,0,0,0,0.03427,0.00058441,0.010456,-0.98728,0.015103,0.029993,8.9665e-07,0.49,0.85,0
0.023059,-0.0075731,0.034273,0.00058465,0.010457,-0.00061409,0,0,0.030961,-0.012835,0,-0.0015966,0,0,0,0.034284,0.00057344,0.010457,-1.044,0.015105,0.030015,8.9815e-07,0.5,0.85,0
0.023369,-0.0076939,0.034295,0.00055597,0.010455,-0.00064137,0,0,0.030992,-0.012869,0,-0.0016676,0,0,0,0.034308,0.00054376,0.010455,-1.0887,0.015102,0.03006,9.0086e-07,0.51,0.85,0
0.023679,-0.0078146,0.034327,0.00050777,0.01045,-0.00066289,0,0,0.03104,-0.012925,0,-0.0017235,0,0,0,0.03434,0.00049476,0.01045,-1.1225,0.015095,0.030127,9.0489e-07,0.52,0.85,0
0.02399,-0.007935,0.03437,0.0004388,0.010443,-0.00067945,0,0,0.031105,-0.013005,0,-0.0017666,0,0,0,0.034383,0.00042516,0.010443,-1.1468,0.015084,0.030222,9.1041e-07,0.53,0.85,0
0.024301,-0.008055,0.034427,0.00034705,0.010432,-0.00069124,0,0,0.031193,-0.013111,0,-0.0017972,0,0,0,0.034441,0.00033298,0.010432,-1.1616,0.015069,0.030346,9.177e-07,0.54,0.85,0
0.024614,-0.0081745,0.034501,0.00023058,0.010419,-0.00069687,0,0,0.031306,-0.013246,0,-0.0018119,0,0,0,0.034515,0.00021631,0.010419,-1.1646,0.01505,0.030505,9.2714e-07,0.55,0.85,0
0.024927,-0.0082932,0.034596,8.8807e-05,0.010405,-0.00069147,0,0,0.031447,-0.013412,0,-0.0017978,0,0,0,0.03461,7.4787e-05,0.010405,-1.1478,0.01503,0.030702,9.3895e-07,0.56,0.85,0
0.025243,-0.0084106,0.0347,-7.6461e-05,0.010387,-0.00066507,0,0,0.031607,-0.013602,0,-0.0017292,0,0,0,0.034713,-8.941e-05,0.010387,-1.0955,0.015003,0.030925,9.5217e-07,0.57,0.85,0
0.025559,-0.0085264,0.034771,-0.00024011,0.010359,-0.00061074,0,0,0.031736,-0.013779,0,-0.0015879,0,0,0,0.034782,-0.00025099,0.010359,-0.9992,0.014964,0.031116,9.626e-07,0.58,0.85,0
0.025877,-0.0086405,0.034756,-0.00032904,0.010328,-0.00055971,0,0,0.031757,-0.013854,0,-0.0014553,0,0,0,0.034765,-0.0003382,0.010328,-0.91377,0.014918,0.031171,9.6391e-07,0.59,0.85,0
0.026195,-0.0087545,0.034664,-0.0003416,0.010297,-0.00060757,0,0,0.031678,-0.01383,0,-0.0015797,0,0,0,0.034676,-0.000353,0.010297,-0.9936,0.014873,0.031103,9.5751e-07,0.6,0.85,0
0.026511,-0.0088724,0.034309,-0.00019451,0.010234,-0.0008596,0,0,0.034821,-0.014637,0,-0.002843,0,0,0,0.03434,-0.000226,0.010234,-1.4916,0.014783,0.030719,9.2995e-07,0.61,0.85,0
0.026889,-0.009016,0.034312,0.00068162,0.010498,-0.00095979,0,0,0.044553,-0.017306,0,-0.004077,0,0,0,0.034361,0.0006334,0.010498,-1.7731,0.015164,0.03007,9.2306e-07,0.62,0.85,0
0.027402,-0.0092128,0.034941,0.0021123,0.011116,-0.00066035,0,0,0.055197,-0.020243,0,-0.0033483,0,0,0,0.034971,0.0020829,0.011116,-1.2502,0.016056,0.029449,9.3869e-07,0.63,0.85,0
0.027999,-0.0094386,0.035012,0.0028133,0.011347,-0.00028522,0,0,0.060183,-0.021666,0,-0.0015585,0,0,0,0.035019,0.0028057,0.011347,-0.53119,0.016391,0.028906,9.0125e-07,0.64,0.85,0
0.028609,-0.0096428,0.034742,0.0025672,0.011193,0.0001391,0,0,0.061228,-0.022427,0,0.0007233,0,0,0,0.034747,0.0025621,0.011193,0.24055,0.016167,0.028855,8.7203e-07,0.65,0.85,0
0.029223,-0.0098131,0.03469,0.0021044,0.011038,0.00056191,0,0,0.061495,-0.023228,0,0.0029219,0,0,0,0.034702,0.002093,0.011038,0.98508,0.015944,0.029183,8.8388e-07,0.66,0.85,0
0.029839,-0.0099587,0.034597,0.0016963,0.010888,0.00083123,0,0,0.061643,-0.023898,0,0.0043224,0,0,0,0.034618,0.0016744,0.010888,1.4458,0.015727,0.02944,8.9086e-07,0.67,0.85,0
0.030456,-0.010085,0.034483,0.0013366,0.010746,0.0010133,0,0,0.061716,-0.024464,0,0.0052693,0,0,0,0.034514,0.0013051,0.010746,1.7498,0.015522,0.029639,8.9427e-07,0.68,0.85,0
0.031073,-0.010195,0.034368,0.0010207,0.010617,0.0011383,0,0,0.061754,-0.02495,0,0.005919,0,0,0,0.034408,0.00098157,0.010617,1.9534,0.015335,0.029801,8.9582e-07,0.69,0.85,0
0.031691,-0.010291,0.03426,0.00074379,0.010501,0.0012224,0,0,0.061773,-0.025369,0,0.0063566,0,0,0,0.034305,0.000699,0.010501,2.087,0.015168,0.029933,8.9619e-07,0.7,0.85,0
0.032309,-0.010376,0.034157,0.00050167,0.010398,0.0012762,0,0,0.061775,-0.02573,0,0.0066364,0,0,0,0.034206,0.00045313,0.010398,2.1695,0.015019,0.030041,8.9566e-07,0.71,0.85,0
0.032927,-0.010451,0.034061,0.00029099,0.010305,0.001307,0,0,0.061763,-0.026038,0,0.0067961,0,0,0,0.034111,0.00024031,0.010305,2.2141,0.014886,0.030127,8.9436e-07,0.72,0.85,0
0.033544,-0.010518,0.033969,0.00010875,0.010223,0.0013199,0,0,0.061738,-0.026298,0,0.0068634,0,0,0,0.03402,5.7215e-05,0.010223,2.2299,0.014767,0.030192,8.9241e-07,0.73,0.85,0
0.034161,-0.010576,0.033881,-4.7869e-05,0.01015,0.001319,0,0,0.061701,-0.026515,0,0.0068586,0,0,0,0.033933,-9.9215e-05,0.01015,2.2238,0.014661,0.030239,8.8989e-07,0.74,0.85,0
0.034778,-0.010628,0.033798,-0.00018151,0.010085,0.0013072,0,0,0.061654,-0.026693,0,0.0067975,0,0,0,0.033848,-0.00023186,0.010085,2.2008,0.014567,0.03027,8.8692e-07,0.75,0.85,0
0.035394,-0.010673,0.033718,-0.00029468,0.010027,0.0012869,0,0,0.061597,-0.026836,0,0.0066916,0,0,0,0.033767,-0.00034343,0.010027,2.1645,0.014483,0.030287,8.8359e-07,0.76,0.85,0
0.03601,-0.010714,0.033642,-0.00038975,0.0099757,0.0012596,0,0,0.061533,-0.02695,0,0.0065499,0,0,0,0.033689,-0.00043643,0.0099757,2.1176,0.014409,0.030292,8.8001e-07,0.77,0.85,0
0.036625,-0.010749,0.03357,-0.0004689,0.0099303,0.0012268,0,0,0.061463,-0.027038,0,0.0063791,0,0,0,0.033614,-0.00051318,0.0099303,2.0621,0.014344,0.030288,8.7625e-07,0.78,0.85,0
0.037239,-0.01078,0.033502,-0.00053417,0.0098903,0.0011893,0,0,0.06139,-0.027104,0,0.0061844,0,0,0,0.033543,-0.00057579,0.0098903,1.9995,0.014286,0.030275,8.724e-07,0.79,0.85,0
0.037853,-0.010808,0.033438,-0.0005874,0.0098551,0.001148,0,0,0.061315,-0.02715,0,0.0059698,0,0,0,0.033476,-0.0006262,0.0098551,1.9309,0.014235,0.030256,8.6853e-07,0.8,0.85,0
0.038466,-0.010831,0.033377,-0.00063028,0.0098242,0.0011035,0,0,0.061239,-0.027182,0,0.0057384,0,0,0,0.033413,-0.00066615,0.0098242,1.8571,0.01419,0.030232,8.6469e-07,0.81,0.85,0
0.039078,-0.010852,0.033321,-0.0006643,0.0097971,0.0010563,0,0,0.061163,-0.0272,0,0.0054927,0,0,0,0.033354,-0.00069719,0.0097971,1.7789,0.014151,0.030204,8.6094e-07,0.82,0.85,0
0.039689,-0.01087,0.033269,-0.00069081,0.0097735,0.0010067,0,0,0.061089,-0.027207,0,0.0052348,0,0,0,0.033299,-0.00072071,0.0097735,1.6968,0.014117,0.030174,8.5731e-07,0.83,0.85,0
0.040299,-0.010886,0.033221,-0.00071101,0.009753,0.00095506,0,0,0.061017,-0.027206,0,0.0049663,0,0,0,0.033248,-0.00073796,0.009753,1.6113,0.014088,0.030142,8.5383e-07,0.84,0.85,0
0.040909,-0.010899,0.033177,-0.00072596,0.0097352,0.00090169,0,0,0.060948,-0.027199,0,0.0046888,0,0,0,0.033201,-0.00075001,0.0097352,1.5227,0.014062,0.03011,8.5053e-07,0.85,0.85,0
0.041518,-0.01091,0.033136,-0.00073659,0.0097199,0.0008468,0,0,0.060883,-0.027187,0,0.0044034,0,0,0,0.033157,-0.00075782,0.0097199,1.4314,0.01404,0.030078,8.4743e-07,0.86,0.85,0
0.042127,-0.01092,0.033099,-0.00074371,0.0097067,0.0007906,0,0,0.060821,-0.027171,0,0.0041111,0,0,0,0.033118,-0.00076224,0.0097067,1.3377,0.014021,0.030046,8.4453e-07,0.87,0.85,0
0.042735,-0.010928,0.033066,-0.00074802,0.0096954,0.00073327,0,0,0.060764,-0.027153,0,0.003813,0,0,0,0.033082,-0.00076398,0.0096954,1.2419,0.014004,0.030016,8.4185e-07,0.88,0.85,0
0.043342,-0.010935,0.033036,-0.00075014,0.0096858,0.00067496,0,0,0.060711,-0.027134,0,0.0035098,0,0,0,0.03305,-0.00076369,0.0096858,1.1442,0.013991,0.029987,8.3939e-07,0.89,0.85,0
0.043949,-0.010941,0.03301,-0.0007506,0.0096777,0.00061582,0,0,0.060663,-0.027114,0,0.0032023,0,0,0,0.033021,-0.0007619,0.0096777,1.0448,0.013979,0.02996,8.3716e-07,0.9,0.85,0
0.044555,-0.010946,0.032986,-0.00074986,0.0096708,0.00055597,0,0,0.060619,-0.027094,0,0.002891,0,0,0,0.032995,-0.00075908,0.0096708,0.94403,0.013969,0.029935,8.3515e-07,0.91,0.85,0
0.045161,-0.01095,0.032965,-0.00074829,0.0096651,0.00049552,0,0,0.06058,-0.027075,0,0.0025767,0,0,0,0.032973,-0.00075563,0.0096651,0.84199,0.013961,0.029912,8.3336e-07,0.92,0.85,0
0.045767,-0.010953,0.032947,-0.00074622,0.0096603,0.00043456,0,0,0.060546,-0.027057,0,0.0022597,0,0,0,0.032953,-0.00075188,0.0096603,0.73889,0.013954,0.029891,8.3179e-07,0.93,0.85,0
0.046372,-0.010956,0.032932,-0.00074392,0.0096564,0.00037318,0,0,0.060517,-0.027041,0,0.0019406,0,0,0,0.032936,-0.00074812,0.0096564,0.63489,0.013948,0.029873,8.3044e-07,0.94,0.85,0
0.046977,-0.010958,0.032919,-0.00074163,0.0096533,0.00031147,0,0,0.060492,-0.027027,0,0.0016196,0,0,0,0.032922,-0.00074457,0.0096533,0.53016,0.013944,0.029858,8.293e-07,0.95,0.85,0
0.047582,-0.010959,0.032909,-0.00073952,0.0096509,0.00024948,0,0,0.060472,-0.027015,0,0.0012973,0,0,0,0.032911,-0.00074143,0.0096509,0.42482,0.01394,0.029846,8.2838e-07,0.96,0.85,0
0.048187,-0.010961,0.032901,-0.00073773,0.0096491,0.00018729,0,0,0.060456,-0.027006,0,0.00097389,0,0,0,0.032902,-0.00073883,0.0096491,0.31901,0.013938,0.029836,8.2766e-07,0.97,0.85,0
0.048791,-0.010961,0.032896,-0.00073638,0.0096478,0.00012494,0,0,0.060445,-0.026999,0,0.00064969,0,0,0,0.032896,-0.0007369,0.0096478,0.21286,0.013936,0.029829,8.2715e-07,0.98,0.85,0
0.049396,-0.010962,0.032892,-0.00073554,0.0096471,6.1761e-05,0,0,0.060438,-0.026995,0,0.00032116,0,0,0,0.032893,-0.00073572,0.0096471,0.10524,0.013935,0.029825,8.2685e-07,0.99,0.85,0
0.049698,-0.010962,0.032891,-0.00073526,0.0096468,2.9787e-05,0,0,0.060436,-0.026993,0,0.00015489,0,0,0,0.032891,-0.00073532,0.0096468,0.05076,0.013934,0.029823,8.2675e-07,1,0.85,0
0.00022991,-0.00016348,0.030913,0.012801,0.013114,-0.0062825,0,0,0.046277,-0.0008148,0,-0.032669,0,0,0,0.032881,0.010833,0.013114,-17.374,0.018943,0.021002,4.5684e-07,0,0.86,0
0.00046277,-0.00032744,0.030972,0.012369,0.013002,-0.0062752,0,0,0.046722,-0.0016467,0,-0.032631,0,0,0,0.032894,0.010447,0.013002,-17.01,0.018781,0.021287,4.714e-07,0.01,0.86,0
0.00093444,-0.0006559,0.031187,0.011532,0.012816,-0.0062477,0,0,0.047766,-0.0033386,0,-0.032488,0,0,0,0.033009,0.0097103,0.012816,-16.233,0.018512,0.021913,5.0417e-07,0.02,0.86,0
0.0014181,-0.00098456,0.031496,0.010711,0.012662,-0.0061835,0,0,0.048968,-0.0050726,0,-0.032154,0,0,0,0.0332,0.009007,0.012662,-15.387,0.01829,0.02259,5.4032e-07,0.03,0.86,0
0.0019138,-0.0013116,0.031797,0.0098809,0.012503,-0.006071,0,0,0.050163,-0.0068184,0,-0.031569,0,0,0,0.03337,0.0083076,0.012503,-14.504,0.01806,0.023252,5.7551e-07,0.04,0.86,0
0.0024214,-0.0016349,0.032083,0.0090558,0.012342,-0.0059101,0,0,0.051328,-0.0085435,0,-0.030733,0,0,0,0.033516,0.0076236,0.012342,-13.596,0.017827,0.023886,6.0897e-07,0.05,0.86,0
0.0029404,-0.0019526,0.03235,0.0082503,0.01218,-0.0057042,0,0,0.052441,-0.010217,0,-0.029662,0,0,0,0.033636,0.0069645,0.01218,-12.676,0.017593,0.024485,6.4011e-07,0.06,0.86,0
0.0034702,-0.0022627,0.032592,0.0074769,0.012021,-0.0054594,0,0,0.053485,-0.011814,0,-0.028389,0,0,0,0.033731,0.0063377,0.012021,-11.757,0.017363,0.025041,6.6855e-07,0.07,0.86,0
0.0040101,-0.0025634,0.032807,0.0067452,0.011866,-0.0051836,0,0,0.054448,-0.013313,0,-0.026954,0,0,0,0.033804,0.0057484,0.011866,-10.854,0.017139,0.025553,6.9413e-07,0.08,0.86,0
0.0045591,-0.0028532,0.032995,0.0060619,0.011717,-0.0048853,0,0,0.055323,-0.014704,0,-0.025404,0,0,0,0.033857,0.0051998,0.011717,-9.9767,0.016925,0.026019,7.1685e-07,0.09,0.86,0
0.0051165,-0.0031311,0.033157,0.0054313,0.011576,-0.0045732,0,0,0.056109,-0.015978,0,-0.023781,0,0,0,0.033895,0.0046933,0.011576,-9.1346,0.016722,0.026442,7.3687e-07,0.1,0.86,0
0.0056813,-0.0033959,0.033295,0.0048551,0.011445,-0.0042549,0,0,0.05681,-0.017134,0,-0.022126,0,0,0,0.033921,0.0042293,0.011445,-8.3343,0.016532,0.026822,7.5445e-07,0.11,0.86,0
0.0062527,-0.0036471,0.033412,0.0043338,0.011324,-0.0039373,0,0,0.05743,-0.018174,0,-0.020474,0,0,0,0.033939,0.0038076,0.011324,-7.5806,0.016357,0.027165,7.6987e-07,0.12,0.86,0
0.0068299,-0.0038842,0.033513,0.0038666,0.011214,-0.0036257,0,0,0.057978,-0.019103,0,-0.018854,0,0,0,0.033952,0.0034274,0.011214,-6.8759,0.016198,0.027472,7.8344e-07,0.13,0.86,0
0.0074123,-0.0041069,0.0336,0.0034522,0.011116,-0.0033244,0,0,0.05846,-0.019925,0,-0.017287,0,0,0,0.033964,0.003088,0.011116,-6.2214,0.016056,0.027748,7.9544e-07,0.14,0.86,0
0.0079991,-0.0043149,0.033678,0.0030891,0.01103,-0.0030363,0,0,0.058885,-0.020647,0,-0.015789,0,0,0,0.033978,0.002789,0.01103,-5.6167,0.015932,0.027994,8.0615e-07,0.15,0.86,0
0.00859,-0.0045083,0.03375,0.002776,0.010958,-0.002763,0,0,0.05926,-0.021273,0,-0.014368,0,0,0,0.033996,0.00253,0.010958,-5.0599,0.015828,0.028213,8.1576e-07,0.16,0.86,0
0.0091843,-0.0046871,0.033819,0.0025118,0.010899,-0.0025053,0,0,0.059591,-0.021807,0,-0.013027,0,0,0,0.034019,0.0023113,0.010899,-4.548,0.015743,0.028405,8.2446e-07,0.17,0.86,0
0.0097818,-0.0048511,0.033887,0.0022957,0.010855,-0.0022625,0,0,0.059884,-0.022254,0,-0.011765,0,0,0,0.034049,0.0021334,0.010855,-4.0769,0.015679,0.028572,8.3237e-07,0.18,0.86,0
0.010382,-0.0050004,0.033958,0.0021273,0.010826,-0.0020328,0,0,0.060144,-0.022615,0,-0.010571,0,0,0,0.034088,0.0019971,0.010826,-3.6406,0.015637,0.028713,8.3959e-07,0.19,0.86,0
0.010985,-0.0051347,0.034033,0.0020069,0.010812,-0.0018133,0,0,0.060374,-0.022893,0,-0.0094293,0,0,0,0.034136,0.0019036,0.010812,-3.2313,0.015617,0.02883,8.4617e-07,0.2,0.86,0
0.011589,-0.0052537,0.034114,0.0019347,0.010815,-0.0015991,0,0,0.060578,-0.023088,0,-0.0083152,0,0,0,0.034194,0.0018545,0.010815,-2.8387,0.015621,0.02892,8.5216e-07,0.21,0.86,0
0.012196,-0.0053567,0.034203,0.0019113,0.010834,-0.0013826,0,0,0.060758,-0.0232,0,-0.0071897,0,0,0,0.034263,0.0018513,0.010834,-2.448,0.015649,0.028984,8.5756e-07,0.22,0.86,0
0.012805,-0.0054428,0.034301,0.0019374,0.010872,-0.0011524,0,0,0.060917,-0.023229,0,-0.0059923,0,0,0,0.034343,0.0018953,0.010872,-2.0373,0.015703,0.02902,8.6237e-07,0.23,0.86,0
0.013415,-0.0055102,0.034411,0.0020128,0.010927,-0.0008889,0,0,0.061058,-0.023177,0,-0.0046223,0,0,0,0.034437,0.0019869,0.010927,-1.5709,0.015784,0.029031,8.6668e-07,0.24,0.86,0
0.014026,-0.0055563,0.034544,0.002135,0.011004,-0.00055808,0,0,0.061205,-0.023059,0,-0.002902,0,0,0,0.034556,0.0021229,0.011004,-0.98623,0.015894,0.02903,8.715e-07,0.25,0.86,0
0.014639,-0.0055768,0.034757,0.0022902,0.011114,-0.00011442,0,0,0.061472,-0.022942,0,-0.00059501,0,0,0,0.034763,0.0022848,0.011114,-0.20176,0.016054,0.029087,8.824e-07,0.26,0.86,0
0.015255,-0.0055669,0.035057,0.0023302,0.011216,0.00041695,0,0,0.061986,-0.023103,0,0.0021682,0,0,0,0.035069,0.0023184,0.011216,0.72585,0.016201,0.029332,9.0601e-07,0.27,0.86,0
0.015878,-0.0055295,0.035479,0.0015517,0.011109,0.00076488,0,0,0.058935,-0.022465,0,0.0039586,0,0,0,0.035508,0.0015231,0.011109,1.3407,0.016047,0.030369,9.7862e-07,0.28,0.86,0
0.016438,-0.0055014,0.035567,0.00020715,0.010732,0.00090449,0,0,0.04851,-0.019434,0,0.0040036,0,0,0,0.03561,0.00016456,0.010732,1.5852,0.015502,0.031555,1.0503e-06,0.29,0.86,0
0.016854,-0.0055312,0.035257,-0.00045061,0.010442,0.00095632,0,0,0.037516,-0.015987,0,0.0031973,0,0,0,0.035296,-0.00048927,0.010442,1.6188,0.015083,0.03178,1.0433e-06,0.3,0.86,0
0.017187,-0.0056139,0.035305,-0.00069624,0.010383,0.00080685,0,0,0.033108,-0.014692,0,0.0022266,0,0,0,0.035328,-0.00071861,0.010383,1.3021,0.014997,0.031975,1.0327e-06,0.31,0.86,0
0.017513,-0.0057134,0.035405,-0.00095723,0.010334,0.00068754,0,0,0.032592,-0.014679,0,0.0017876,0,0,0,0.03542,-0.00097155,0.010334,1.0811,0.014928,0.03226,1.0379e-06,0.32,0.86,0
0.017839,-0.0058133,0.035219,-0.00094034,0.010284,0.00070138,0,0,0.032416,-0.014591,0,0.0018236,0,0,0,0.035233,-0.00095465,0.010284,1.1105,0.014854,0.032081,1.0211e-06,0.33,0.86,0
0.018162,-0.0059124,0.035024,-0.00078215,0.010272,0.00066402,0,0,0.032176,-0.014371,0,0.0017265,0,0,0,0.035036,-0.00079495,0.010272,1.0621,0.014838,0.031778,9.9962e-07,0.34,0.86,0
0.018482,-0.0060121,0.034862,-0.00062884,0.01027,0.0005767,0,0,0.03197,-0.014168,0,0.0014994,0,0,0,0.034872,-0.00063857,0.01027,0.93056,0.014834,0.031506,9.8125e-07,0.35,0.86,0
0.018801,-0.0061134,0.034746,-0.00047963,0.01028,0.00047181,0,0,0.031806,-0.013987,0,0.0012267,0,0,0,0.034752,-0.00048624,0.01028,0.76701,0.014849,0.031278,9.6691e-07,0.36,0.86,0
0.019118,-0.0062164,0.034654,-0.00033761,0.010295,0.00036456,0,0,0.031667,-0.013822,0,0.00094786,0,0,0,0.034658,-0.00034166,0.010295,0.5966,0.014871,0.031078,9.55e-07,0.37,0.86,0
0.019434,-0.0063213,0.034577,-0.00020338,0.010312,0.00025999,0,0,0.031545,-0.01367,0,0.00067597,0,0,0,0.03458,-0.00020554,0.010312,0.42801,0.014895,0.030899,9.4461e-07,0.38,0.86,0
0.019749,-0.0064281,0.03451,-7.5219e-05,0.01033,0.00015989,0,0,0.031433,-0.013527,0,0.00041572,0,0,0,0.034511,-7.6152e-05,0.01033,0.26464,0.014922,0.030735,9.3529e-07,0.39,0.86,0
0.020063,-0.0065367,0.03445,4.7755e-05,0.010349,6.4185e-05,0,0,0.031331,-0.013392,0,0.00016688,0,0,0,0.03445,4.7461e-05,0.010349,0.10668,0.014949,0.030582,9.2678e-07,0.4,0.86,0
0.020376,-0.0066471,0.034396,0.0001643,0.010368,-2.7708e-05,0,0,0.031236,-0.013265,0,-7.204e-05,0,0,0,0.034396,0.00016412,0.010368,-0.04658,0.014976,0.030441,9.1903e-07,0.41,0.86,0
0.020688,-0.0067591,0.034348,0.00027213,0.010386,-0.00011594,0,0,0.03115,-0.013148,0,-0.00030145,0,0,0,0.034348,0.00027159,0.010386,-0.19513,0.015002,0.030313,9.1208e-07,0.42,0.86,0
0.020999,-0.0068727,0.034306,0.00036895,0.010402,-0.00020013,0,0,0.031075,-0.013044,0,-0.00052033,0,0,0,0.034307,0.00036765,0.010402,-0.33801,0.015026,0.0302,9.0602e-07,0.43,0.86,0
0.021309,-0.0069878,0.034271,0.00045291,0.010417,-0.00027961,0,0,0.03101,-0.012954,0,-0.00072699,0,0,0,0.034273,0.0004505,0.010417,-0.4738,0.015047,0.030104,9.0091e-07,0.44,0.86,0
0.021619,-0.0071043,0.034243,0.00052252,0.01043,-0.00035375,0,0,0.030958,-0.012879,0,-0.00091975,0,0,0,0.034247,0.00051873,0.01043,-0.60106,0.015065,0.030026,8.968e-07,0.45,0.86,0
0.021928,-0.0072219,0.034222,0.00057652,0.01044,-0.000422,0,0,0.030918,-0.012822,0,-0.0010972,0,0,0,0.034228,0.00057116,0.01044,-0.71853,0.01508,0.029967,8.9374e-07,0.46,0.86,0
0.022237,-0.0073406,0.034209,0.00061387,0.010447,-0.00048394,0,0,0.030891,-0.012783,0,-0.0012582,0,0,0,0.034216,0.00060685,0.010447,-0.82515,0.01509,0.029928,8.9176e-07,0.47,0.86,0
0.022546,-0.0074602,0.034203,0.0006337,0.010451,-0.00053925,0,0,0.030878,-0.012763,0,-0.0014021,0,0,0,0.034212,0.000625,0.010451,-0.92009,0.015096,0.02991,8.9089e-07,0.48,0.86,0
0.022855,-0.0075805,0.034205,0.00063539,0.010452,-0.00058774,0,0,0.030878,-0.012762,0,-0.0015281,0,0,0,0.034215,0.00062507,0.010452,-1.0027,0.015097,0.029913,8.9114e-07,0.49,0.86,0
0.023164,-0.0077012,0.034214,0.00061865,0.01045,-0.0006294,0,0,0.030893,-0.01278,0,-0.0016364,0,0,0,0.034226,0.00060684,0.01045,-1.0729,0.015094,0.029936,8.9252e-07,0.5,0.86,0
0.023473,-0.0078223,0.03423,0.00058361,0.010444,-0.00066474,0,0,0.030922,-0.012819,0,-0.0017283,0,0,0,0.034244,0.00057046,0.010444,-1.1314,0.015086,0.029981,8.9501e-07,0.51,0.86,0
0.023782,-0.0079436,0.034255,0.00053041,0.010436,-0.00069501,0,0,0.030965,-0.012877,0,-0.001807,0,0,0,0.034269,0.00051607,0.010436,-1.1801,0.015074,0.030048,8.9866e-07,0.52,0.86,0
0.024092,-0.0080648,0.034289,0.00045815,0.010424,-0.00072213,0,0,0.031025,-0.012956,0,-0.0018775,0,0,0,0.034305,0.00044271,0.010424,-1.2223,0.015057,0.030138,9.0362e-07,0.53,0.86,0
0.024403,-0.0081859,0.034336,0.00036388,0.01041,-0.00074779,0,0,0.031103,-0.01306,0,-0.0019443,0,0,0,0.034352,0.00034738,0.01041,-1.2605,0.015036,0.030256,9.1019e-07,0.54,0.86,0
0.024714,-0.0083068,0.034399,0.00024393,0.010393,-0.00077211,0,0,0.031208,-0.013194,0,-0.0020075,0,0,0,0.034416,0.0002264,0.010393,-1.2945,0.015012,0.030409,9.1888e-07,0.55,0.86,0
0.025027,-0.0084271,0.03449,9.6983e-05,0.010376,-0.00079232,0,0,0.031348,-0.013363,0,-0.00206,0,0,0,0.034508,7.8577e-05,0.010376,-1.3193,0.014988,0.030609,9.3062e-07,0.56,0.86,0
0.025341,-0.0085467,0.034629,-7.556e-05,0.010366,-0.000796,0,0,0.031542,-0.013574,0,-0.0020696,0,0,0,0.034647,-9.4156e-05,0.010366,-1.3138,0.014973,0.03087,9.4699e-07,0.57,0.86,0
0.025658,-0.0086645,0.034805,-0.00027616,0.010359,-0.00075402,0,0,0.03178,-0.013825,0,-0.0019605,0,0,0,0.034822,-0.00029308,0.010359,-1.2311,0.014963,0.031185,9.6722e-07,0.58,0.86,0
0.025977,-0.0087794,0.034977,-0.00036493,0.010384,-0.00066709,0,0,0.031971,-0.013973,0,-0.0017344,0,0,0,0.034991,-0.0003789,0.010384,-1.0795,0.014998,0.031403,9.8398e-07,0.59,0.86,0
0.026297,-0.0088924,0.034868,-0.00021151,0.010397,-0.00071816,0,0,0.032508,-0.01407,0,-0.0019832,0,0,0,0.034886,-0.00022992,0.010397,-1.1889,0.015018,0.031192,9.8045e-07,0.6,0.86,0
0.026624,-0.0090197,0.034814,-8.5018e-05,0.010419,-0.00081241,0,0,0.036888,-0.015425,0,-0.0027322,0,0,0,0.034845,-0.00011611,0.010419,-1.4142,0.015049,0.03108,9.9271e-07,0.61,0.86,0
0.027034,-0.009196,0.035121,0.00045909,0.010674,-0.00072968,0,0,0.04777,-0.018877,0,-0.0032815,0,0,0,0.035155,0.0004254,0.010674,-1.3194,0.015418,0.030942,1.0022e-06,0.62,0.86,0
0.027585,-0.0094256,0.035042,0.0016798,0.011016,-0.00057908,0,0,0.058113,-0.02196,0,-0.0030419,0,0,0,0.035063,0.001659,0.011016,-1.0399,0.015913,0.029866,9.3702e-07,0.63,0.86,0
0.0282,-0.0096617,0.034634,0.0023253,0.011088,-0.00023627,0,0,0.06122,-0.022783,0,-0.0012286,0,0,0,0.034642,0.0023173,0.011088,-0.41627,0.016016,0.028954,8.7232e-07,0.64,0.86,0
0.028809,-0.0098693,0.03435,0.0021391,0.010947,0.0002722,0,0,0.060849,-0.0229,0,0.0014154,0,0,0,0.034357,0.0021323,0.010947,0.48223,0.015812,0.028846,8.5587e-07,0.65,0.86,0
0.029417,-0.010046,0.034154,0.0018116,0.01079,0.00067414,0,0,0.060748,-0.023343,0,0.0035055,0,0,0,0.03417,0.0017956,0.01079,1.1924,0.015585,0.028945,8.5221e-07,0.66,0.86,0
0.030024,-0.010197,0.034035,0.0014916,0.010658,0.00094184,0,0,0.06078,-0.023833,0,0.0048976,0,0,0,0.034063,0.0014635,0.010658,1.6562,0.015395,0.029113,8.5438e-07,0.67,0.86,0
0.030632,-0.010329,0.033936,0.0011944,0.010539,0.0011186,0,0,0.060833,-0.024297,0,0.0058166,0,0,0,0.033975,0.0011557,0.010539,1.9548,0.015223,0.029278,8.5697e-07,0.68,0.86,0
0.031241,-0.010443,0.033847,0.00092365,0.010431,0.0012367,0,0,0.06088,-0.024719,0,0.0064309,0,0,0,0.033893,0.00087698,0.010431,2.1489,0.015067,0.029426,8.5896e-07,0.69,0.86,0
0.03185,-0.010544,0.033763,0.00068019,0.010333,0.0013145,0,0,0.060918,-0.025097,0,0.0068353,0,0,0,0.033816,0.00062786,0.010333,2.2726,0.014925,0.029555,8.6024e-07,0.7,0.86,0
0.032459,-0.010632,0.033685,0.00046346,0.010245,0.0013629,0,0,0.060946,-0.025431,0,0.0070871,0,0,0,0.033741,0.00040749,0.010245,2.3462,0.014798,0.029665,8.6083e-07,0.71,0.86,0
0.033069,-0.01071,0.033612,0.00027231,0.010165,0.0013892,0,0,0.060961,-0.025722,0,0.0072237,0,0,0,0.03367,0.0002144,0.010165,2.3828,0.014683,0.029755,8.6075e-07,0.72,0.86,0
0.033679,-0.010779,0.033542,0.00010526,0.010094,0.0013983,0,0,0.060964,-0.025971,0,0.0072713,0,0,0,0.0336,4.6768e-05,0.010094,2.3915,0.01458,0.029827,8.6007e-07,0.73,0.86,0
0.034288,-0.01084,0.033475,-3.9417e-05,0.010031,0.001394,0,0,0.060956,-0.026182,0,0.007249,0,0,0,0.033533,-9.7407e-05,0.010031,2.3786,0.014489,0.029883,8.5884e-07,0.74,0.86,0
0.034898,-0.010893,0.033411,-0.00016357,0.0099743,0.0013791,0,0,0.060936,-0.026359,0,0.0071711,0,0,0,0.033468,-0.00022022,0.0099743,2.349,0.014407,0.029923,8.5715e-07,0.75,0.86,0
0.035507,-0.01094,0.03335,-0.00026913,0.0099243,0.0013555,0,0,0.060907,-0.026503,0,0.0070487,0,0,0,0.033405,-0.00032379,0.0099243,2.3059,0.014335,0.02995,8.5508e-07,0.76,0.86,0
0.036116,-0.010982,0.033292,-0.00035801,0.0098801,0.001325,0,0,0.06087,-0.026619,0,0.00689,0,0,0,0.033344,-0.0004102,0.0098801,2.2522,0.014271,0.029965,8.527e-07,0.77,0.86,0
0.036724,-0.011018,0.033236,-0.00043209,0.0098412,0.0012888,0,0,0.060827,-0.026711,0,0.0067017,0,0,0,0.033286,-0.00048144,0.0098412,2.1896,0.014215,0.02997,8.5011e-07,0.78,0.86,0
0.037332,-0.01105,0.033184,-0.00049315,0.0098071,0.0012479,0,0,0.060779,-0.026781,0,0.006489,0,0,0,0.03323,-0.00053941,0.0098071,2.1198,0.014166,0.029967,8.4736e-07,0.79,0.86,0
0.03794,-0.011078,0.033134,-0.00054285,0.0097773,0.0012031,0,0,0.060727,-0.026832,0,0.0062559,0,0,0,0.033177,-0.00058586,0.0097773,2.0439,0.014123,0.029957,8.4454e-07,0.8,0.86,0
0.038547,-0.011102,0.033087,-0.00058274,0.0097514,0.001155,0,0,0.060674,-0.026869,0,0.0060058,0,0,0,0.033127,-0.0006224,0.0097514,1.9628,0.014085,0.029942,8.4169e-07,0.81,0.86,0
0.039153,-0.011123,0.033044,-0.00061423,0.009729,0.0011041,0,0,0.060619,-0.026892,0,0.0057413,0,0,0,0.03308,-0.00065049,0.009729,1.8772,0.014053,0.029923,8.3887e-07,0.82,0.86,0
0.039759,-0.011141,0.033004,-0.00063859,0.0097096,0.0010509,0,0,0.060565,-0.026905,0,0.0054647,0,0,0,0.033037,-0.00067146,0.0097096,1.7878,0.014025,0.029901,8.3611e-07,0.83,0.86,0
0.040365,-0.011156,0.032967,-0.00065694,0.009693,0.00099574,0,0,0.060512,-0.02691,0,0.0051778,0,0,0,0.032996,-0.00068648,0.009693,1.6951,0.014001,0.029877,8.3344e-07,0.84,0.86,0
0.04097,-0.01117,0.032933,-0.00067031,0.0096788,0.00093891,0,0,0.060461,-0.026908,0,0.0048823,0,0,0,0.032959,-0.0006966,0.0096788,1.5995,0.013981,0.029853,8.309e-07,0.85,0.86,0
0.041574,-0.011181,0.032902,-0.00067959,0.0096668,0.00088066,0,0,0.060412,-0.026901,0,0.0045794,0,0,0,0.032925,-0.00070274,0.0096668,1.5014,0.013963,0.029827,8.285e-07,0.86,0.86,0
0.042178,-0.011191,0.032874,-0.00068555,0.0096566,0.00082123,0,0,0.060366,-0.02689,0,0.0042704,0,0,0,0.032894,-0.0007057,0.0096566,1.4012,0.013948,0.029802,8.2625e-07,0.87,0.86,0
0.042781,-0.011199,0.032849,-0.00068888,0.0096481,0.00076081,0,0,0.060323,-0.026876,0,0.0039562,0,0,0,0.032866,-0.0007062,0.0096481,1.299,0.013936,0.029778,8.2417e-07,0.88,0.86,0
0.043384,-0.011205,0.032827,-0.00069017,0.0096409,0.00069955,0,0,0.060283,-0.026861,0,0.0036377,0,0,0,0.032841,-0.00070483,0.0096409,1.1953,0.013926,0.029754,8.2226e-07,0.89,0.86,0
0.043987,-0.011211,0.032807,-0.00068993,0.009635,0.0006376,0,0,0.060246,-0.026845,0,0.0033155,0,0,0,0.032819,-0.00070213,0.009635,1.0902,0.013917,0.029732,8.2052e-07,0.9,0.86,0
0.044589,-0.011216,0.032789,-0.0006886,0.0096302,0.00057509,0,0,0.060213,-0.026829,0,0.0029905,0,0,0,0.032799,-0.00069854,0.0096302,0.98396,0.01391,0.029712,8.1896e-07,0.91,0.86,0
0.045191,-0.01122,0.032774,-0.00068655,0.0096262,0.00051212,0,0,0.060184,-0.026813,0,0.002663,0,0,0,0.032782,-0.00069445,0.0096262,0.87673,0.013905,0.029693,8.1757e-07,0.92,0.86,0
0.045793,-0.011223,0.032761,-0.00068408,0.009623,0.00044877,0,0,0.060158,-0.026799,0,0.0023336,0,0,0,0.032767,-0.00069017,0.009623,0.7687,0.0139,0.029676,8.1635e-07,0.93,0.86,0
0.046394,-0.011225,0.03275,-0.00068147,0.0096205,0.00038513,0,0,0.060136,-0.026785,0,0.0020027,0,0,0,0.032754,-0.00068597,0.0096205,0.65999,0.013896,0.029662,8.153e-07,0.94,0.86,0
0.046996,-0.011227,0.032741,-0.00067892,0.0096185,0.00032125,0,0,0.060117,-0.026773,0,0.0016705,0,0,0,0.032744,-0.00068207,0.0096185,0.55075,0.013893,0.029649,8.1442e-07,0.95,0.86,0
0.047597,-0.011228,0.032733,-0.00067661,0.009617,0.0002572,0,0,0.060102,-0.026763,0,0.0013374,0,0,0,0.032735,-0.00067865,0.009617,0.44107,0.013891,0.029639,8.1371e-07,0.96,0.86,0
0.048198,-0.011229,0.032728,-0.00067468,0.0096159,0.00019301,0,0,0.06009,-0.026755,0,0.0010036,0,0,0,0.032729,-0.00067586,0.0096159,0.33108,0.01389,0.029631,8.1315e-07,0.97,0.86,0
0.048798,-0.01123,0.032724,-0.00067323,0.0096151,0.00012872,0,0,0.060082,-0.02675,0,0.00066934,0,0,0,0.032724,-0.00067379,0.0096151,0.22084,0.013888,0.029625,8.1276e-07,0.98,0.86,0
0.049399,-0.011231,0.032721,-0.00067233,0.0096146,6.3704e-05,0,0,0.060077,-0.026746,0,0.00033126,0,0,0,0.032721,-0.00067252,0.0096146,0.10931,0.013888,0.029622,8.1252e-07,0.99,0.86,0
0.0497,-0.011231,0.03272,-0.00067203,0.0096145,3.0849e-05,0,0,0.060075,-0.026745,0,0.00016041,0,0,0,0.03272,-0.00067209,0.0096145,0.052937,0.013888,0.029621,8.1244e-07,1,0.86,0
0.00023076,-0.0001718,0.031025,0.012829,0.013156,-0.0066021,0,0,0.046459,-0.00085119,0,-0.034331,0,0,0,0.03317,0.010684,0.013156,-17.982,0.019003,0.021359,4.7791e-07,0,0.87,0
0.00046459,-0.00034427,0.031087,0.012375,0.013039,-0.0065953,0,0,0.046926,-0.0017251,0,-0.034296,0,0,0,0.033181,0.010281,0.013039,-17.599,0.018834,0.021656,4.932e-07,0.01,0.87,0
0.00093852,-0.00069007,0.031311,0.01149,0.01284,-0.0065676,0,0,0.048023,-0.0035095,0,-0.034151,0,0,0,0.033293,0.009508,0.01284,-16.778,0.018547,0.022309,5.2772e-07,0.02,0.87,0
0.001425,-0.0010366,0.03163,0.010617,0.012674,-0.0064978,0,0,0.049285,-0.0053478,0,-0.033788,0,0,0,0.033481,0.0087663,0.012674,-15.879,0.018307,0.023013,5.657e-07,0.03,0.87,0
0.0019242,-0.0013815,0.031938,0.0097324,0.012501,-0.0063714,0,0,0.050536,-0.0071987,0,-0.033131,0,0,0,0.033641,0.0080299,0.012501,-14.936,0.018057,0.023696,6.0219e-07,0.04,0.87,0
0.0024358,-0.0017226,0.032227,0.0088556,0.012325,-0.006189,0,0,0.051745,-0.0090196,0,-0.032183,0,0,0,0.033769,0.0073134,0.012325,-13.965,0.017802,0.024341,6.362e-07,0.05,0.87,0
0.0029591,-0.0020574,0.032488,0.0080049,0.012148,-0.0059558,0,0,0.052885,-0.010772,0,-0.03097,0,0,0,0.033864,0.0066286,0.012148,-12.982,0.017547,0.02494,6.6704e-07,0.06,0.87,0
0.0034935,-0.0023837,0.032718,0.0071951,0.011974,-0.0056803,0,0,0.053935,-0.012425,0,-0.029537,0,0,0,0.03393,0.0059838,0.011974,-12.007,0.017296,0.025485,6.9434e-07,0.07,0.87,0
0.0040378,-0.0026996,0.032914,0.006437,0.011805,-0.0053727,0,0,0.054883,-0.013958,0,-0.027938,0,0,0,0.033967,0.0053843,0.011805,-11.053,0.017052,0.025975,7.1799e-07,0.08,0.87,0
0.0045911,-0.0030034,0.033077,0.0057372,0.011644,-0.0050439,0,0,0.055725,-0.015358,0,-0.026228,0,0,0,0.033982,0.0048327,0.011644,-10.134,0.016819,0.026411,7.3813e-07,0.09,0.87,0
0.0051523,-0.003294,0.033208,0.005099,0.011492,-0.0047038,0,0,0.056462,-0.016622,0,-0.02446,0,0,0,0.033978,0.0043295,0.011492,-9.2582,0.0166,0.026795,7.5508e-07,0.1,0.87,0
0.0057204,-0.0035703,0.033311,0.004523,0.01135,-0.0043613,0,0,0.057099,-0.017751,0,-0.022679,0,0,0,0.033961,0.0038739,0.01135,-8.4332,0.016395,0.027133,7.692e-07,0.11,0.87,0
0.0062943,-0.0038317,0.033391,0.0040081,0.01122,-0.0040237,0,0,0.057646,-0.01875,0,-0.020923,0,0,0,0.033935,0.0034645,0.01122,-7.6624,0.016206,0.027428,7.8094e-07,0.12,0.87,0
0.0068733,-0.0040779,0.033452,0.0035519,0.011101,-0.0036966,0,0,0.058113,-0.019628,0,-0.019222,0,0,0,0.033905,0.0030995,0.011101,-6.9475,0.016035,0.027686,7.9068e-07,0.13,0.87,0
0.0074566,-0.0043085,0.033499,0.0031519,0.010995,-0.0033839,0,0,0.05851,-0.020393,0,-0.017596,0,0,0,0.033874,0.0027772,0.010995,-6.2886,0.015882,0.02791,7.9881e-07,0.14,0.87,0
0.0080435,-0.0045235,0.033536,0.0028051,0.010902,-0.0030881,0,0,0.058848,-0.021053,0,-0.016058,0,0,0,0.033845,0.0024963,0.010902,-5.684,0.015748,0.028105,8.0563e-07,0.15,0.87,0
0.0086335,-0.0047228,0.033567,0.0025092,0.010823,-0.0028107,0,0,0.059134,-0.021615,0,-0.014615,0,0,0,0.03382,0.0022556,0.010823,-5.1313,0.015633,0.028272,8.114e-07,0.16,0.87,0
0.0092262,-0.0049066,0.033594,0.0022619,0.010757,-0.0025515,0,0,0.059378,-0.022087,0,-0.013268,0,0,0,0.033802,0.0020543,0.010757,-4.6265,0.015538,0.028414,8.1631e-07,0.17,0.87,0
0.0098211,-0.0050748,0.033622,0.0020614,0.010705,-0.0023098,0,0,0.059584,-0.022473,0,-0.012011,0,0,0,0.033791,0.0018922,0.010705,-4.1647,0.015463,0.028532,8.2051e-07,0.18,0.87,0
0.010418,-0.0052275,0.033651,0.0019061,0.010667,-0.0020835,0,0,0.059758,-0.022779,0,-0.010834,0,0,0,0.033788,0.0017691,0.010667,-3.7398,0.015408,0.028627,8.241e-07,0.19,0.87,0
0.011016,-0.0053643,0.033685,0.0017948,0.010644,-0.0018691,0,0,0.059906,-0.023007,0,-0.0097194,0,0,0,0.033794,0.0016849,0.010644,-3.3436,0.015374,0.028699,8.2716e-07,0.2,0.87,0
0.011616,-0.0054851,0.033724,0.0017262,0.010635,-0.0016618,0,0,0.060031,-0.023163,0,-0.0086416,0,0,0,0.033811,0.0016394,0.010635,-2.9657,0.015362,0.028749,8.2979e-07,0.21,0.87,0
0.012217,-0.0055891,0.033771,0.0016982,0.010641,-0.0014544,0,0,0.060139,-0.023251,0,-0.0075631,0,0,0,0.033838,0.0016317,0.010641,-2.5917,0.01537,0.02878,8.3211e-07,0.22,0.87,0
0.012819,-0.0056755,0.033832,0.0017078,0.010662,-0.0012363,0,0,0.060242,-0.023281,0,-0.0064285,0,0,0,0.03388,0.0016594,0.010662,-2.2012,0.0154,0.028795,8.3448e-07,0.23,0.87,0
0.013422,-0.0057427,0.033916,0.0017487,0.010699,-0.00099168,0,0,0.060363,-0.023272,0,-0.0051567,0,0,0,0.033948,0.0017169,0.010699,-1.7649,0.015455,0.02881,8.3784e-07,0.24,0.87,0
0.014026,-0.0057883,0.034054,0.0018086,0.010759,-0.0007008,0,0,0.060568,-0.023271,0,-0.0036442,0,0,0,0.034072,0.0017914,0.010759,-1.2462,0.015541,0.028861,8.4494e-07,0.25,0.87,0
0.014633,-0.0058094,0.034302,0.0018537,0.010847,-0.00035159,0,0,0.060983,-0.023382,0,-0.0018283,0,0,0,0.034309,0.0018463,0.010847,-0.62551,0.015667,0.029029,8.6158e-07,0.26,0.87,0
0.015246,-0.0058031,0.034669,0.0018375,0.010952,7.9663e-05,0,0,0.061665,-0.023698,0,0.00041425,0,0,0,0.034676,0.0018309,0.010952,0.12771,0.01582,0.029367,8.9129e-07,0.27,0.87,0
0.015866,-0.0057625,0.035587,0.0012641,0.011055,0.00035747,0,0,0.059934,-0.023588,0,0.0018985,0,0,0,0.035599,0.0012526,0.011055,0.61676,0.015969,0.030653,1.0207e-06,0.28,0.87,0
0.016452,-0.0057064,0.036213,0.00024232,0.010937,0.00053933,0,0,0.052381,-0.021591,0,0.0023906,0,0,0,0.036235,0.00021949,0.010937,0.95438,0.015797,0.032046,1.1684e-06,0.29,0.87,0
0.016929,-0.0056978,0.035407,-0.00028957,0.010535,0.0009277,0,0,0.042251,-0.018098,0,0.0032539,0,0,0,0.035448,-0.00033057,0.010535,1.6245,0.015217,0.031777,1.1233e-06,0.3,0.87,0
0.017302,-0.0057628,0.034839,-0.000577,0.010279,0.0011039,0,0,0.035489,-0.015599,0,0.0034026,0,0,0,0.034882,-0.00062015,0.010279,1.8681,0.014847,0.031501,1.0334e-06,0.31,0.87,0
0.017634,-0.0058608,0.0351,-0.0008841,0.010265,0.00098255,0,0,0.032924,-0.014763,0,0.0026822,0,0,0,0.03513,-0.00091452,0.010265,1.589,0.014827,0.031957,1.0235e-06,0.32,0.87,0
0.017959,-0.0059591,0.035071,-0.00085981,0.010263,0.00089887,0,0,0.03225,-0.01446,0,0.0023371,0,0,0,0.035094,-0.00088298,0.010263,1.4334,0.014825,0.031899,1.0075e-06,0.33,0.87,0
0.018279,-0.0060555,0.034863,-0.00068172,0.010254,0.00080626,0,0,0.031991,-0.014217,0,0.0020963,0,0,0,0.034882,-0.00070049,0.010254,1.2989,0.014812,0.031564,9.84e-07,0.34,0.87,0
0.018598,-0.0061532,0.034745,-0.00052242,0.010267,0.00068014,0,0,0.031822,-0.014026,0,0.0017684,0,0,0,0.034759,-0.00053586,0.010267,1.1042,0.01483,0.031323,9.689e-07,0.35,0.87,0
0.018916,-0.0062526,0.034664,-0.00036796,0.010289,0.00055688,0,0,0.031688,-0.013854,0,0.0014479,0,0,0,0.034673,-0.0003771,0.010289,0.91023,0.014862,0.03112,9.5724e-07,0.36,0.87,0
0.019232,-0.006354,0.034593,-0.00022771,0.01031,0.00043776,0,0,0.031568,-0.013698,0,0.0011382,0,0,0,0.034599,-0.00023346,0.01031,0.71989,0.014892,0.030939,9.4699e-07,0.37,0.87,0
0.019547,-0.0064575,0.034528,-9.9826e-05,0.010328,0.00032554,0,0,0.031459,-0.013557,0,0.00084641,0,0,0,0.034531,-0.00010311,0.010328,0.53834,0.014919,0.030774,9.377e-07,0.38,0.87,0
0.019861,-0.0065629,0.034467,2.3036e-05,0.010347,0.00022053,0,0,0.031356,-0.013421,0,0.00057337,0,0,0,0.034469,2.1426e-05,0.010347,0.36657,0.014946,0.03062,9.2907e-07,0.39,0.87,0
0.020174,-0.0066702,0.034411,0.00014295,0.010366,0.00012048,0,0,0.031258,-0.01329,0,0.00031324,0,0,0,0.034412,0.00014234,0.010366,0.20121,0.014973,0.030472,9.2093e-07,0.4,0.87,0
0.020486,-0.0067793,0.034358,0.00025707,0.010385,2.3439e-05,0,0,0.031166,-0.013166,0,6.0941e-05,0,0,0,0.034359,0.00025688,0.010385,0.03917,0.015,0.030334,9.1334e-07,0.41,0.87,0
0.020798,-0.0068901,0.03431,0.00036166,0.010402,-7.0831e-05,0,0,0.031081,-0.013052,0,-0.00018416,0,0,0,0.034311,0.00036135,0.010402,-0.11973,0.015025,0.030208,9.0648e-07,0.42,0.87,0
0.021108,-0.0070027,0.034268,0.0004542,0.010417,-0.00016151,0,0,0.031007,-0.012951,0,-0.00041992,0,0,0,0.034269,0.00045329,0.010417,-0.27381,0.015046,0.030098,9.0048e-07,0.43,0.87,0
0.021418,-0.0071169,0.034232,0.00053307,0.01043,-0.00024764,0,0,0.030944,-0.012866,0,-0.00064386,0,0,0,0.034234,0.00053113,0.01043,-0.42113,0.015065,0.030005,8.9544e-07,0.44,0.87,0
0.021727,-0.0072327,0.034203,0.00059702,0.01044,-0.0003285,0,0,0.030892,-0.012796,0,-0.00085409,0,0,0,0.034206,0.00059371,0.01044,-0.56008,0.01508,0.02993,8.9139e-07,0.45,0.87,0
0.022036,-0.0073498,0.03418,0.00064497,0.010447,-0.00040359,0,0,0.030852,-0.012743,0,-0.0010493,0,0,0,0.034185,0.00064003,0.010447,-0.68947,0.015091,0.029874,8.8835e-07,0.46,0.87,0
0.022344,-0.0074681,0.034164,0.00067599,0.010452,-0.00047259,0,0,0.030825,-0.012709,0,-0.0012287,0,0,0,0.034171,0.00066926,0.010452,-0.80838,0.015097,0.029838,8.8636e-07,0.47,0.87,0
0.022652,-0.0075875,0.034155,0.00068926,0.010453,-0.00053522,0,0,0.030812,-0.012693,0,-0.0013916,0,0,0,0.034163,0.00068065,0.010453,-0.91603,0.015099,0.029822,8.8545e-07,0.48,0.87,0
0.02296,-0.0077078,0.034153,0.00068413,0.010451,-0.00059121,0,0,0.030812,-0.012697,0,-0.0015371,0,0,0,0.034163,0.00067365,0.010451,-1.0117,0.015096,0.029828,8.8564e-07,0.49,0.87,0
0.023268,-0.0078287,0.034158,0.00066032,0.010445,-0.00064029,0,0,0.030826,-0.012721,0,-0.0016647,0,0,0,0.03417,0.00064805,0.010445,-1.0946,0.015088,0.029854,8.8692e-07,0.5,0.87,0
0.023577,-0.0079502,0.034169,0.0006184,0.010436,-0.00068252,0,0,0.030852,-0.012763,0,-0.0017746,0,0,0,0.034183,0.00060449,0.010436,-1.1649,0.015074,0.0299,8.8922e-07,0.51,0.87,0
0.023885,-0.0080721,0.034186,0.00056016,0.010424,-0.00071926,0,0,0.030891,-0.012823,0,-0.0018701,0,0,0,0.034201,0.00054475,0.010424,-1.2248,0.015057,0.029964,8.9243e-07,0.52,0.87,0
0.024195,-0.0081941,0.034209,0.00048651,0.010409,-0.00075376,0,0,0.03094,-0.012899,0,-0.0019598,0,0,0,0.034226,0.00046964,0.010409,-1.2798,0.015035,0.030046,8.9658e-07,0.53,0.87,0
0.024504,-0.0083162,0.03424,0.0003936,0.01039,-0.0007898,0,0,0.031005,-0.012995,0,-0.0020535,0,0,0,0.034258,0.00037514,0.01039,-1.336,0.015008,0.03015,9.0191e-07,0.54,0.87,0
0.024815,-0.0084384,0.034279,0.00027244,0.010365,-0.00082888,0,0,0.031088,-0.013121,0,-0.0021551,0,0,0,0.034299,0.00025219,0.010365,-1.3954,0.014972,0.030285,9.0877e-07,0.55,0.87,0
0.025126,-0.0085604,0.034332,0.00011961,0.010335,-0.00087029,0,0,0.031195,-0.013281,0,-0.0022627,0,0,0,0.034354,9.7397e-05,0.010335,-1.4563,0.014929,0.030457,9.1764e-07,0.56,0.87,0
0.025439,-0.0086821,0.034422,-5.7201e-05,0.01031,-0.00091518,0,0,0.031347,-0.013477,0,-0.0023795,0,0,0,0.034447,-8.171e-05,0.01031,-1.5199,0.014892,0.030682,9.3042e-07,0.57,0.87,0
0.025753,-0.0088029,0.034604,-0.00027238,0.0103,-0.00093092,0,0,0.031596,-0.013744,0,-0.0024204,0,0,0,0.03463,-0.00029779,0.0103,-1.5297,0.014877,0.031018,9.519e-07,0.58,0.87,0
0.02607,-0.0089199,0.034612,-0.00036674,0.010274,-0.00094452,0,0,0.032266,-0.014091,0,-0.0025727,0,0,0,0.034641,-0.00039543,0.010274,-1.5695,0.01484,0.031106,9.6703e-07,0.59,0.87,0
0.026396,-0.0090352,0.034337,-0.00016539,0.010251,-0.0010037,0,0,0.034804,-0.014975,0,-0.0030831,0,0,0,0.034374,-0.0002026,0.010251,-1.7429,0.014808,0.030715,9.7688e-07,0.6,0.87,0
0.026762,-0.0091805,0.034888,2.9839e-05,0.010475,-0.0007822,0,0,0.041476,-0.017469,0,-0.0027181,0,0,0,0.034923,-4.2982e-06,0.010475,-1.4146,0.015131,0.03105,1.0637e-06,0.61,0.87,0
0.027231,-0.009395,0.035687,0.0004822,0.010851,-0.00037017,0,0,0.051478,-0.020941,0,-0.0016507,0,0,0,0.035705,0.00046402,0.010851,-0.68995,0.015673,0.031379,1.1091e-06,0.62,0.87,0
0.027807,-0.0096531,0.035075,0.0013934,0.010941,-0.00018091,0,0,0.05897,-0.023008,0,-0.001019,0,0,0,0.035084,0.0013849,0.010941,-0.32362,0.015803,0.03009,9.7192e-07,0.63,0.87,0
0.028418,-0.0098942,0.034172,0.0018451,0.010805,8.8873e-05,0,0,0.060755,-0.023296,0,0.00046214,0,0,0,0.034179,0.0018387,0.010805,0.16794,0.015608,0.028919,8.525e-07,0.64,0.87,0
0.029022,-0.010101,0.033811,0.0017332,0.010663,0.00049717,0,0,0.060185,-0.023218,0,0.0025853,0,0,0,0.033822,0.0017224,0.010663,0.8915,0.015403,0.028694,8.2847e-07,0.65,0.87,0
0.029621,-0.01028,0.033569,0.0015353,0.010531,0.00080705,0,0,0.059899,-0.02339,0,0.0041967,0,0,0,0.033591,0.0015134,0.010531,1.4432,0.015212,0.028654,8.1736e-07,0.66,0.87,0
0.03022,-0.010435,0.033434,0.0013,0.01042,0.0010376,0,0,0.059836,-0.023713,0,0.0053955,0,0,0,0.033468,0.0012658,0.01042,1.8479,0.015051,0.02874,8.1554e-07,0.67,0.87,0
0.030818,-0.010571,0.033349,0.0010618,0.010323,0.0011985,0,0,0.059867,-0.02408,0,0.0062323,0,0,0,0.033394,0.001017,0.010323,2.1234,0.014911,0.028872,8.1725e-07,0.68,0.87,0
0.031417,-0.010689,0.033285,0.0008337,0.010236,0.0013079,0,0,0.059928,-0.024445,0,0.0068012,0,0,0,0.033338,0.00078087,0.010236,2.3049,0.014785,0.029009,8.1978e-07,0.69,0.87,0
0.032017,-0.010793,0.033229,0.00062188,0.010155,0.00138,0,0,0.059993,-0.024787,0,0.0071759,0,0,0,0.033288,0.00056346,0.010155,2.4198,0.014669,0.029138,8.2218e-07,0.7,0.87,0
0.032617,-0.010885,0.033179,0.00042923,0.010083,0.0014244,0,0,0.060051,-0.025099,0,0.0074067,0,0,0,0.033241,0.00036731,0.010083,2.4864,0.014564,0.029252,8.241e-07,0.71,0.87,0
0.033218,-0.010966,0.033132,0.00025678,0.010017,0.0014476,0,0,0.0601,-0.025375,0,0.0075275,0,0,0,0.033196,0.00019309,0.010017,2.5172,0.014468,0.029351,8.2544e-07,0.72,0.87,0
0.033819,-0.011037,0.033087,0.00010447,0.0099573,0.0014543,0,0,0.060136,-0.025617,0,0.0075625,0,0,0,0.033151,4.0404e-05,0.0099573,2.5207,0.014383,0.029433,8.2618e-07,0.73,0.87,0
0.03442,-0.0111,0.033043,-2.8444e-05,0.0099044,0.0014479,0,0,0.06016,-0.025825,0,0.0075292,0,0,0,0.033106,-9.1778e-05,0.0099044,2.5029,0.014306,0.029499,8.2638e-07,0.74,0.87,0
0.035022,-0.011155,0.033001,-0.00014312,0.0098573,0.0014309,0,0,0.060173,-0.026001,0,0.0074408,0,0,0,0.033063,-0.00020485,0.0098573,2.4682,0.014238,0.02955,8.2607e-07,0.75,0.87,0
0.035624,-0.011203,0.03296,-0.00024097,0.0098157,0.0014053,0,0,0.060175,-0.026147,0,0.0073076,0,0,0,0.03302,-0.00030042,0.0098157,2.4201,0.014178,0.029589,8.2534e-07,0.76,0.87,0
0.036226,-0.011246,0.032921,-0.00032354,0.0097792,0.0013726,0,0,0.060168,-0.026267,0,0.0071377,0,0,0,0.032978,-0.00038018,0.0097792,2.3609,0.014126,0.029615,8.2426e-07,0.77,0.87,0
0.036827,-0.011283,0.032883,-0.0003924,0.0097473,0.0013341,0,0,0.060154,-0.026363,0,0.0069373,0,0,0,0.032937,-0.00044587,0.0097473,2.2928,0.014079,0.029632,8.229e-07,0.78,0.87,0
0.037429,-0.011316,0.032848,-0.00044912,0.0097196,0.0012907,0,0,0.060133,-0.026439,0,0.0067118,0,0,0,0.032898,-0.00049915,0.0097196,2.2171,0.014039,0.029639,8.2134e-07,0.79,0.87,0
0.03803,-0.011344,0.032814,-0.0004952,0.0096957,0.0012433,0,0,0.060108,-0.026496,0,0.0064652,0,0,0,0.03286,-0.00054161,0.0096957,2.1351,0.014005,0.02964,8.1964e-07,0.8,0.87,0
0.038631,-0.011369,0.032783,-0.00053206,0.0096751,0.0011925,0,0,0.060079,-0.026539,0,0.0062012,0,0,0,0.032825,-0.00057476,0.0096751,2.0479,0.013975,0.029636,8.1785e-07,0.81,0.87,0
0.039231,-0.01139,0.032753,-0.000561,0.0096577,0.0011389,0,0,0.060049,-0.026569,0,0.0059225,0,0,0,0.032792,-0.00059997,0.0096577,1.9561,0.01395,0.029627,8.1602e-07,0.82,0.87,0
0.039832,-0.011408,0.032726,-0.00058322,0.0096429,0.001083,0,0,0.060017,-0.026588,0,0.0056316,0,0,0,0.032762,-0.00061846,0.0096429,1.8606,0.013929,0.029614,8.142e-07,0.83,0.87,0
0.040432,-0.011424,0.032702,-0.00059979,0.0096305,0.0010251,0,0,0.059985,-0.026599,0,0.0053306,0,0,0,0.032733,-0.00063138,0.0096305,1.7618,0.013911,0.029599,8.1242e-07,0.84,0.87,0
0.041032,-0.011437,0.032679,-0.00061166,0.0096202,0.00096563,0,0,0.059953,-0.026603,0,0.0050213,0,0,0,0.032707,-0.00063971,0.0096202,1.6603,0.013896,0.029583,8.107e-07,0.85,0.87,0
0.041631,-0.011449,0.032659,-0.00061969,0.0096118,0.00090481,0,0,0.059922,-0.026602,0,0.004705,0,0,0,0.032684,-0.00064434,0.0096118,1.5565,0.013884,0.029566,8.0906e-07,0.86,0.87,0
0.04223,-0.011458,0.032641,-0.00062462,0.0096048,0.0008429,0,0,0.059893,-0.026597,0,0.0043831,0,0,0,0.032662,-0.00064603,0.0096048,1.4507,0.013874,0.029548,8.0752e-07,0.87,0.87,0
0.042829,-0.011466,0.032625,-0.00062711,0.0095993,0.00078012,0,0,0.059866,-0.026589,0,0.0040566,0,0,0,0.032643,-0.00064546,0.0095993,1.3434,0.013866,0.02953,8.0609e-07,0.88,0.87,0
0.043427,-0.011473,0.03261,-0.00062771,0.0095948,0.00071665,0,0,0.059841,-0.026579,0,0.0037266,0,0,0,0.032626,-0.00064322,0.0095948,1.2347,0.013859,0.029513,8.0478e-07,0.89,0.87,0
0.044026,-0.011478,0.032598,-0.00062691,0.0095913,0.00065261,0,0,0.059817,-0.026567,0,0.0033936,0,0,0,0.032611,-0.00063979,0.0095913,1.1249,0.013854,0.029497,8.0359e-07,0.9,0.87,0
0.044624,-0.011483,0.032587,-0.00062514,0.0095886,0.00058814,0,0,0.059796,-0.026556,0,0.0030584,0,0,0,0.032598,-0.00063561,0.0095886,1.0143,0.01385,0.029482,8.0251e-07,0.91,0.87,0
0.045222,-0.011486,0.032578,-0.00062273,0.0095866,0.00052335,0,0,0.059778,-0.026544,0,0.0027214,0,0,0,0.032586,-0.00063104,0.0095866,0.90292,0.013847,0.029469,8.0156e-07,0.92,0.87,0
0.045819,-0.011489,0.03257,-0.00061999,0.0095851,0.0004583,0,0,0.059761,-0.026533,0,0.0023832,0,0,0,0.032577,-0.00062638,0.0095851,0.791,0.013845,0.029456,8.0073e-07,0.93,0.87,0
0.046417,-0.011492,0.032564,-0.00061717,0.009584,0.00039307,0,0,0.059747,-0.026523,0,0.002044,0,0,0,0.032568,-0.00062189,0.009584,0.67865,0.013844,0.029445,8.0001e-07,0.94,0.87,0
0.047014,-0.011493,0.032558,-0.00061446,0.0095832,0.00032771,0,0,0.059735,-0.026514,0,0.0017041,0,0,0,0.032562,-0.00061776,0.0095832,0.56597,0.013842,0.029436,7.9942e-07,0.95,0.87,0
0.047611,-0.011495,0.032554,-0.00061204,0.0095826,0.00026225,0,0,0.059726,-0.026506,0,0.0013637,0,0,0,0.032556,-0.00061418,0.0095826,0.45303,0.013842,0.029428,7.9893e-07,0.96,0.87,0
0.048209,-0.011496,0.032551,-0.00061002,0.0095823,0.00019673,0,0,0.059718,-0.0265,0,0.001023,0,0,0,0.032552,-0.00061126,0.0095823,0.33992,0.013841,0.029422,7.9856e-07,0.97,0.87,0
0.048806,-0.011496,0.032549,-0.00060852,0.009582,0.00013117,0,0,0.059713,-0.026495,0,0.00068211,0,0,0,0.032549,-0.0006091,0.009582,0.22668,0.013841,0.029418,7.9829e-07,0.98,0.87,0
0.049403,-0.011497,0.032547,-0.00060759,0.0095819,6.4972e-05,0,0,0.05971,-0.026493,0,0.00033786,0,0,0,0.032548,-0.00060778,0.0095819,0.11228,0.013841,0.029415,7.9813e-07,0.99,0.87,0
0.049701,-0.011497,0.032547,-0.00060727,0.0095819,3.1557e-05,0,0,0.059709,-0.026492,0,0.0001641,0,0,0,0.032547,-0.00060734,0.0095819,0.054539,0.013841,0.029414,7.9808e-07,1,0.87,0
0.00023184,-0.00018051,0.03117,0.012868,0.013211,-0.0069363,0,0,0.046693,-0.0008935,0,-0.036069,0,0,0,0.033504,0.010534,0.013211,-18.58,0.019083,0.021757,5.0203e-07,0,0.88,0
0.00046693,-0.00036194,0.031235,0.012388,0.013087,-0.00693,0,0,0.047185,-0.0018169,0,-0.036036,0,0,0,0.033512,0.010111,0.013087,-18.174,0.018903,0.022067,5.182e-07,0.01,0.88,0
0.0009437,-0.00072609,0.031468,0.011447,0.012874,-0.0069011,0,0,0.048343,-0.0037111,0,-0.035886,0,0,0,0.03362,0.0092946,0.012874,-17.304,0.018596,0.02275,5.5479e-07,0.02,0.88,0
0.0014338,-0.0010915,0.031799,0.010511,0.012693,-0.0068227,0,0,0.049675,-0.0056731,0,-0.035478,0,0,0,0.033802,0.0085074,0.012693,-16.343,0.018334,0.023486,5.9484e-07,0.03,0.88,0
0.0019372,-0.0014556,0.032113,0.0095615,0.012502,-0.0066766,0,0,0.050988,-0.0076464,0,-0.034718,0,0,0,0.033947,0.0077283,0.012502,-15.328,0.018059,0.024189,6.3258e-07,0.04,0.88,0
0.0024535,-0.0018153,0.032401,0.0086251,0.012308,-0.006465,0,0,0.052242,-0.009575,0,-0.033618,0,0,0,0.03405,0.006976,0.012308,-14.282,0.017778,0.024843,6.6682e-07,0.05,0.88,0
0.002982,-0.002168,0.032653,0.0077244,0.012113,-0.0061959,0,0,0.053404,-0.011411,0,-0.032219,0,0,0,0.034113,0.0062645,0.012113,-13.227,0.017497,0.025435,6.9677e-07,0.06,0.88,0
0.0035216,-0.0025112,0.032865,0.0068767,0.011922,-0.0058812,0,0,0.05445,-0.013119,0,-0.030582,0,0,0,0.034138,0.005603,0.011922,-12.186,0.017221,0.02596,7.2212e-07,0.07,0.88,0
0.004071,-0.0028425,0.033034,0.0060932,0.011738,-0.0055344,0,0,0.055369,-0.014677,0,-0.028779,0,0,0,0.034131,0.0049962,0.011738,-11.177,0.016955,0.026418,7.4294e-07,0.08,0.88,0
0.004629,-0.0031604,0.033162,0.0053801,0.011563,-0.0051688,0,0,0.056159,-0.016075,0,-0.026878,0,0,0,0.034097,0.0044456,0.011563,-10.212,0.016702,0.026811,7.5957e-07,0.09,0.88,0
0.0051942,-0.0034635,0.033254,0.0047388,0.011398,-0.0047963,0,0,0.056826,-0.017314,0,-0.024941,0,0,0,0.034043,0.0039501,0.011398,-9.3025,0.016463,0.027147,7.7253e-07,0.1,0.88,0
0.0057655,-0.003751,0.033314,0.0041679,0.011245,-0.0044267,0,0,0.057381,-0.018399,0,-0.023019,0,0,0,0.033975,0.0035073,0.011245,-8.453,0.016242,0.02743,7.8239e-07,0.11,0.88,0
0.0063418,-0.0040222,0.033349,0.0036644,0.011104,-0.0040674,0,0,0.057836,-0.019343,0,-0.02115,0,0,0,0.033898,0.0031145,0.011104,-7.6664,0.016039,0.027669,7.8972e-07,0.12,0.88,0
0.0069222,-0.0042768,0.033363,0.0032241,0.010976,-0.0037239,0,0,0.058206,-0.020156,0,-0.019364,0,0,0,0.033819,0.0027685,0.010976,-6.9431,0.015855,0.027869,7.9505e-07,0.13,0.88,0
0.007506,-0.0045147,0.033364,0.0028426,0.010862,-0.0033997,0,0,0.058505,-0.02085,0,-0.017679,0,0,0,0.03374,0.0024666,0.010862,-6.2817,0.015689,0.028035,7.9882e-07,0.14,0.88,0
0.0080923,-0.004736,0.033355,0.0025159,0.010761,-0.0030967,0,0,0.058743,-0.021438,0,-0.016103,0,0,0,0.033664,0.0022065,0.010761,-5.6794,0.015544,0.028172,8.014e-07,0.15,0.88,0
0.0086808,-0.0049406,0.03334,0.0022403,0.010674,-0.0028154,0,0,0.058932,-0.021928,0,-0.01464,0,0,0,0.033594,0.0019861,0.010674,-5.1324,0.015418,0.028284,8.0305e-07,0.16,0.88,0
0.009271,-0.0051288,0.033323,0.0020124,0.010601,-0.0025554,0,0,0.059079,-0.02233,0,-0.013288,0,0,0,0.033532,0.0018041,0.010601,-4.6359,0.015312,0.028371,8.0398e-07,0.17,0.88,0
0.0098624,-0.0053006,0.033307,0.0018295,0.010541,-0.002315,0,0,0.059191,-0.02265,0,-0.012038,0,0,0,0.033477,0.0016593,0.010541,-4.1844,0.015226,0.028437,8.0434e-07,0.18,0.88,0
0.010455,-0.0054559,0.033293,0.0016892,0.010495,-0.0020919,0,0,0.059275,-0.022894,0,-0.010878,0,0,0,0.033431,0.0015505,0.010495,-3.7709,0.015159,0.028482,8.0423e-07,0.19,0.88,0
0.011048,-0.0055948,0.033282,0.0015888,0.010461,-0.0018824,0,0,0.059334,-0.023069,0,-0.0097887,0,0,0,0.033394,0.0014767,0.010461,-3.3874,0.015111,0.028508,8.0374e-07,0.2,0.88,0
0.011641,-0.0057169,0.033278,0.0015255,0.010441,-0.0016819,0,0,0.059376,-0.02318,0,-0.0087457,0,0,0,0.033367,0.001436,0.010441,-3.0237,0.015081,0.028516,8.0298e-07,0.21,0.88,0
0.012235,-0.0058217,0.033282,0.0014952,0.010433,-0.0014837,0,0,0.059407,-0.023239,0,-0.0077154,0,0,0,0.033352,0.0014254,0.010433,-2.6668,0.01507,0.02851,8.0218e-07,0.22,0.88,0
0.01283,-0.0059084,0.033299,0.0014914,0.010437,-0.0012797,0,0,0.059441,-0.023259,0,-0.0066544,0,0,0,0.033351,0.0014393,0.010437,-2.3004,0.015076,0.028499,8.0178e-07,0.23,0.88,0
0.013424,-0.0059756,0.033338,0.0015031,0.010452,-0.00106,0,0,0.059503,-0.023268,0,-0.0055119,0,0,0,0.033374,0.0014669,0.010452,-1.9056,0.015098,0.028498,8.0273e-07,0.24,0.88,0
0.01402,-0.0060217,0.033412,0.0015092,0.010476,-0.00081652,0,0,0.059632,-0.023314,0,-0.0042459,0,0,0,0.033434,0.0014871,0.010476,-1.4668,0.015132,0.028535,8.0658e-07,0.25,0.88,0
0.014617,-0.0060445,0.033513,0.0014738,0.010496,-0.00054521,0,0,0.059844,-0.023458,0,-0.0028351,0,0,0,0.033524,0.0014629,0.010496,-0.97802,0.015161,0.028634,8.1419e-07,0.26,0.88,0
0.015217,-0.0060409,0.03364,0.0013924,0.01051,-0.00021636,0,0,0.060139,-0.023705,0,-0.0011251,0,0,0,0.033645,0.0013881,0.01051,-0.39094,0.015181,0.0288,8.2587e-07,0.27,0.88,0
0.01582,-0.0060035,0.034112,0.00099057,0.010531,7.9867e-05,0,0,0.059894,-0.02417,0,0.00042054,0,0,0,0.034114,0.00098826,0.010531,0.13448,0.015211,0.029536,8.952e-07,0.28,0.88,0
0.016418,-0.0059379,0.034864,0.00018886,0.010516,0.00028751,0,0,0.056762,-0.023923,0,0.0013052,0,0,0,0.034872,0.00018181,0.010516,0.50048,0.01519,0.030851,1.0273e-06,0.29,0.88,0
0.016969,-0.0058952,0.034485,-0.0004715,0.010204,0.00067267,0,0,0.049106,-0.021299,0,0.00262,0,0,0,0.034516,-0.00050244,0.010204,1.2096,0.014739,0.031089,1.0433e-06,0.3,0.88,0
0.017414,-0.005925,0.033568,-0.00081875,0.0098248,0.0010866,0,0,0.039707,-0.017409,0,0.0037801,0,0,0,0.033621,-0.00087162,0.0098248,1.9336,0.014191,0.030596,9.5067e-07,0.31,0.88,0
0.017762,-0.0060082,0.033955,-0.00092689,0.0099083,0.0011232,0,0,0.033506,-0.014929,0,0.0033093,0,0,0,0.033998,-0.00097008,0.0099083,1.8953,0.014312,0.031003,9.3806e-07,0.32,0.88,0
0.01808,-0.0061025,0.034559,-0.00079866,0.010128,0.00097774,0,0,0.031761,-0.014205,0,0.0025421,0,0,0,0.034587,-0.00082616,0.010128,1.5834,0.01463,0.031403,9.6342e-07,0.33,0.88,0
0.018398,-0.0061967,0.034608,-0.00060386,0.010201,0.00086312,0,0,0.031729,-0.014047,0,0.0022441,0,0,0,0.03463,-0.00062533,0.010201,1.403,0.014735,0.03128,9.6077e-07,0.34,0.88,0
0.018715,-0.0062926,0.034614,-0.00041498,0.01026,0.00074417,0,0,0.03166,-0.013877,0,0.0019348,0,0,0,0.03463,-0.00043101,0.01026,1.2161,0.01482,0.031125,9.552e-07,0.35,0.88,0
0.019031,-0.0063904,0.034581,-0.00024416,0.010301,0.00062018,0,0,0.031564,-0.013709,0,0.0016125,0,0,0,0.034592,-0.00025546,0.010301,1.0196,0.014879,0.03095,9.4706e-07,0.36,0.88,0
0.019346,-0.0064904,0.034529,-0.00011063,0.010326,0.00049607,0,0,0.031465,-0.013567,0,0.0012898,0,0,0,0.034537,-0.00011798,0.010326,0.82002,0.014915,0.030791,9.3859e-07,0.37,0.88,0
0.01966,-0.0065924,0.034476,4.946e-06,0.010344,0.00038191,0,0,0.031372,-0.013441,0,0.00099296,0,0,0,0.034481,5.1151e-07,0.010344,0.63443,0.014942,0.030647,9.3063e-07,0.38,0.88,0
0.019973,-0.0066965,0.034424,0.00012247,0.010364,0.00027735,0,0,0.031278,-0.013314,0,0.0007211,0,0,0,0.034426,0.00012003,0.010364,0.46299,0.01497,0.030503,9.2277e-07,0.39,0.88,0
0.020286,-0.0068025,0.034372,0.00024263,0.010384,0.00017575,0,0,0.031183,-0.013184,0,0.00045695,0,0,0,0.034373,0.00024154,0.010384,0.2948,0.014999,0.030358,9.1491e-07,0.4,0.88,0
0.020597,-0.0069104,0.03432,0.00035622,0.010403,7.4121e-05,0,0,0.031092,-0.013061,0,0.00019271,0,0,0,0.03432,0.00035587,0.010403,0.12481,0.015026,0.030221,9.0741e-07,0.41,0.88,0
0.020908,-0.0070202,0.034273,0.0004577,0.010419,-2.6166e-05,0,0,0.03101,-0.01295,0,-6.8031e-05,0,0,0,0.034273,0.00045751,0.010419,-0.044529,0.01505,0.030098,9.0066e-07,0.42,0.88,0
0.021217,-0.0071318,0.034231,0.00054571,0.010433,-0.00012301,0,0,0.030938,-0.012854,0,-0.00031982,0,0,0,0.034232,0.00054511,0.010433,-0.20938,0.01507,0.029991,8.9483e-07,0.43,0.88,0
0.021526,-0.0072452,0.034196,0.00061937,0.010445,-0.00021512,0,0,0.030877,-0.012773,0,-0.00055931,0,0,0,0.034197,0.00061785,0.010445,-0.36718,0.015087,0.029903,8.8996e-07,0.44,0.88,0
0.021835,-0.0073602,0.034166,0.00067766,0.010453,-0.00030185,0,0,0.030827,-0.012708,0,-0.00078481,0,0,0,0.034169,0.00067482,0.010453,-0.51647,0.015099,0.029832,8.8604e-07,0.45,0.88,0
0.022143,-0.0074768,0.034141,0.00071974,0.010458,-0.00038289,0,0,0.030788,-0.01266,0,-0.00099551,0,0,0,0.034146,0.00071526,0.010458,-0.65633,0.015106,0.029779,8.8306e-07,0.46,0.88,0
0.022451,-0.0075948,0.034123,0.00074477,0.01046,-0.00045812,0,0,0.030761,-0.01263,0,-0.0011911,0,0,0,0.034129,0.0007384,0.01046,-0.78621,0.015109,0.029746,8.8106e-07,0.47,0.88,0
0.022758,-0.007714,0.03411,0.00075195,0.010459,-0.00052744,0,0,0.030747,-0.012619,0,-0.0013713,0,0,0,0.034118,0.00074354,0.010459,-0.90561,0.015107,0.029733,8.8009e-07,0.48,0.88,0
0.023066,-0.0078344,0.034104,0.00074061,0.010453,-0.00059067,0,0,0.030746,-0.012627,0,-0.0015357,0,0,0,0.034115,0.0007301,0.010453,-1.0139,0.015099,0.02974,8.802e-07,0.49,0.88,0
0.023373,-0.0079556,0.034106,0.00070996,0.010445,-0.00064721,0,0,0.030759,-0.012655,0,-0.0016827,0,0,0,0.034118,0.00069738,0.010445,-1.1098,0.015087,0.029769,8.8144e-07,0.5,0.88,0
0.023681,-0.0080776,0.034113,0.00065966,0.010432,-0.00069587,0,0,0.030786,-0.012704,0,-0.0018092,0,0,0,0.034127,0.00064516,0.010432,-1.1911,0.015068,0.029819,8.8369e-07,0.51,0.88,0
0.023989,-0.0082,0.034123,0.00059347,0.010415,-0.00073639,0,0,0.030821,-0.012768,0,-0.0019146,0,0,0,0.034139,0.00057728,0.010415,-1.2575,0.015044,0.029884,8.8663e-07,0.52,0.88,0
0.024297,-0.0083228,0.034136,0.00051881,0.010396,-0.00077303,0,0,0.030861,-0.012841,0,-0.0020099,0,0,0,0.034154,0.00050102,0.010396,-1.3166,0.015017,0.029957,8.8998e-07,0.53,0.88,0
0.024606,-0.0084458,0.034152,0.00043338,0.010376,-0.00081384,0,0,0.030909,-0.012925,0,-0.002116,0,0,0,0.034172,0.00041371,0.010376,-1.3818,0.014987,0.030042,8.9393e-07,0.54,0.88,0
0.024915,-0.0085692,0.034169,0.0003161,0.010346,-0.00086086,0,0,0.030971,-0.013038,0,-0.0022382,0,0,0,0.034191,0.00029418,0.010346,-1.4556,0.014944,0.030155,8.9894e-07,0.55,0.88,0
0.025225,-0.0086927,0.034172,0.00014658,0.010296,-0.00090613,0,0,0.031039,-0.013194,0,-0.0023559,0,0,0,0.034196,0.00012243,0.010296,-1.5243,0.014871,0.030296,9.0428e-07,0.56,0.88,0
0.025536,-0.0088162,0.034139,-5.7475e-05,0.010225,-0.00094681,0,0,0.031089,-0.013367,0,-0.0024617,0,0,0,0.034166,-8.3835e-05,0.010225,-1.5846,0.014769,0.030434,9.0783e-07,0.57,0.88,0
0.025847,-0.0089394,0.034066,-0.00028525,0.010134,-0.00098665,0,0,0.031111,-0.013545,0,-0.0025653,0,0,0,0.034095,-0.00031392,0.010134,-1.6444,0.014638,0.030555,9.0918e-07,0.58,0.88,0
0.026158,-0.0090607,0.033446,-0.00047872,0.0098901,-0.0010645,0,0,0.032824,-0.014291,0,-0.0031225,0,0,0,0.033485,-0.00051853,0.0098901,-1.8436,0.014286,0.030185,8.8478e-07,0.59,0.88,0
0.0265,-0.0091911,0.033046,-0.00045642,0.0097768,-0.00097459,0,0,0.038918,-0.016746,0,-0.0033604,0,0,0,0.033092,-0.00050296,0.0097768,-1.7828,0.014122,0.02983,8.9708e-07,0.6,0.88,0
0.026936,-0.009371,0.033942,-0.0001752,0.01013,-0.00052644,0,0,0.048161,-0.020564,0,-0.0019889,0,0,0,0.033968,-0.00020141,0.01013,-0.98476,0.014632,0.03036,9.8567e-07,0.61,0.88,0
0.027476,-0.0096192,0.034314,0.0004154,0.010419,-0.00012108,0,0,0.055708,-0.023177,0,-0.0005028,0,0,0,0.034319,0.00041027,0.010419,-0.22433,0.01505,0.030178,9.7216e-07,0.62,0.88,0
0.028064,-0.0098879,0.03357,0.0011175,0.010406,9.4001e-05,0,0,0.058834,-0.023535,0,0.00047006,0,0,0,0.033572,0.0011151,0.010406,0.17141,0.015031,0.028953,8.4906e-07,0.63,0.88,0
0.028657,-0.010128,0.0331,0.0014139,0.010354,0.00038242,0,0,0.059139,-0.023245,0,0.0019886,0,0,0,0.033107,0.0014065,0.010354,0.69733,0.014956,0.028308,7.8587e-07,0.64,0.88,0
0.029247,-0.010334,0.032968,0.0013821,0.010305,0.00068975,0,0,0.058924,-0.0232,0,0.0035867,0,0,0,0.032985,0.0013655,0.010305,1.2533,0.014885,0.028232,7.7774e-07,0.65,0.88,0
0.029835,-0.010514,0.03286,0.0012836,0.010243,0.00092381,0,0,0.058805,-0.023295,0,0.0048038,0,0,0,0.032888,0.0012557,0.010243,1.6756,0.014796,0.028233,7.7372e-07,0.66,0.88,0
0.030423,-0.010672,0.032778,0.0011238,0.010171,0.00111,0,0,0.05878,-0.023522,0,0.0057722,0,0,0,0.032818,0.0010844,0.010171,2.0063,0.014691,0.028306,7.7341e-07,0.67,0.88,0
0.031011,-0.01081,0.032727,0.00093887,0.0101,0.0012498,0,0,0.058831,-0.023818,0,0.006499,0,0,0,0.032776,0.00088955,0.0101,2.2483,0.014589,0.028424,7.7581e-07,0.68,0.88,0
0.0316,-0.010932,0.032694,0.00074978,0.010033,0.0013492,0,0,0.058918,-0.024136,0,0.0070159,0,0,0,0.032751,0.00069277,0.010033,2.4146,0.014492,0.028557,7.7933e-07,0.69,0.88,0
0.032189,-0.01104,0.032669,0.0005674,0.0099709,0.0014163,0,0,0.059015,-0.024449,0,0.0073649,0,0,0,0.032731,0.00050497,0.0099709,2.5218,0.014402,0.02869,7.8299e-07,0.7,0.88,0
0.03278,-0.011134,0.032648,0.00039752,0.0099136,0.0014581,0,0,0.059109,-0.024742,0,0.0075824,0,0,0,0.032714,0.00033168,0.0099136,2.584,0.01432,0.028812,7.8632e-07,0.71,0.88,0
0.033371,-0.011218,0.032628,0.00024301,0.0098614,0.00148,0,0,0.059194,-0.025008,0,0.007696,0,0,0,0.032696,0.00017549,0.0098614,2.6117,0.014244,0.028921,7.8913e-07,0.72,0.88,0
0.033964,-0.011291,0.032609,0.00010507,0.0098142,0.0014859,0,0,0.059267,-0.025244,0,0.0077267,0,0,0,0.032677,3.7259e-05,0.0098142,2.6125,0.014176,0.029014,7.9136e-07,0.73,0.88,0
0.034557,-0.011356,0.03259,-1.6192e-05,0.0097721,0.0014789,0,0,0.059326,-0.02545,0,0.0076901,0,0,0,0.032657,-8.3159e-05,0.0097721,2.5921,0.014115,0.029093,7.9302e-07,0.74,0.88,0
0.03515,-0.011413,0.032571,-0.00012134,0.0097348,0.0014612,0,0,0.059373,-0.025626,0,0.0075983,0,0,0,0.032636,-0.00018655,0.0097348,2.5546,0.014061,0.029157,7.9413e-07,0.75,0.88,0
0.035744,-0.011463,0.032552,-0.00021134,0.0097021,0.0014348,0,0,0.059409,-0.025775,0,0.0074609,0,0,0,0.032614,-0.00027409,0.0097021,2.5033,0.014014,0.029208,7.9478e-07,0.76,0.88,0
0.036338,-0.011507,0.032533,-0.0002874,0.0096737,0.0014011,0,0,0.059434,-0.025899,0,0.0072858,0,0,0,0.032593,-0.00034714,0.0096737,2.4405,0.013973,0.029247,7.9503e-07,0.77,0.88,0
0.036933,-0.011545,0.032515,-0.00035085,0.0096491,0.0013614,0,0,0.05945,-0.026,0,0.0070791,0,0,0,0.032571,-0.00040719,0.0096491,2.3683,0.013938,0.029275,7.9496e-07,0.78,0.88,0
0.037527,-0.011579,0.032497,-0.00040307,0.0096282,0.0013166,0,0,0.059459,-0.026081,0,0.0068461,0,0,0,0.03255,-0.00045572,0.0096282,2.2883,0.013907,0.029295,7.9462e-07,0.79,0.88,0
0.038122,-0.011607,0.032481,-0.0004454,0.0096106,0.0012676,0,0,0.059462,-0.026146,0,0.0065913,0,0,0,0.032529,-0.00049418,0.0096106,2.2017,0.013882,0.029308,7.9408e-07,0.8,0.88,0
0.038717,-0.011632,0.032465,-0.00047914,0.0095958,0.0012151,0,0,0.05946,-0.026195,0,0.0063183,0,0,0,0.03251,-0.00052395,0.0095958,2.1097,0.013861,0.029315,7.934e-07,0.81,0.88,0
0.039311,-0.011654,0.032451,-0.00050549,0.0095837,0.0011597,0,0,0.059455,-0.026232,0,0.0060302,0,0,0,0.032492,-0.00054631,0.0095837,2.013,0.013843,0.029317,7.9262e-07,0.82,0.88,0
0.039906,-0.011672,0.032438,-0.00052557,0.0095738,0.0011019,0,0,0.059448,-0.026258,0,0.0057298,0,0,0,0.032475,-0.00056242,0.0095738,1.9126,0.013829,0.029315,7.918e-07,0.83,0.88,0
0.0405,-0.011688,0.032427,-0.00054038,0.009566,0.0010422,0,0,0.059439,-0.026276,0,0.0054192,0,0,0,0.03246,-0.00057335,0.009566,1.809,0.013817,0.02931,7.9095e-07,0.84,0.88,0
0.041095,-0.011702,0.032417,-0.00055082,0.0095598,0.00098086,0,0,0.059428,-0.026288,0,0.0051005,0,0,0,0.032446,-0.00058004,0.0095598,1.7028,0.013809,0.029303,7.901e-07,0.85,0.88,0
0.041689,-0.011713,0.032408,-0.00055769,0.0095551,0.0009183,0,0,0.059418,-0.026293,0,0.0047752,0,0,0,0.032434,-0.00058332,0.0095551,1.5945,0.013802,0.029295,7.8928e-07,0.86,0.88,0
0.042283,-0.011723,0.032401,-0.0005617,0.0095517,0.00085475,0,0,0.059407,-0.026295,0,0.0044447,0,0,0,0.032423,-0.00058392,0.0095517,1.4845,0.013797,0.029285,7.885e-07,0.87,0.88,0
0.042877,-0.01173,0.032394,-0.00056346,0.0095493,0.00079042,0,0,0.059397,-0.026293,0,0.0041102,0,0,0,0.032413,-0.00058247,0.0095493,1.3731,0.013793,0.029276,7.8778e-07,0.88,0.88,0
0.043471,-0.011737,0.032389,-0.0005635,0.0095477,0.00072552,0,0,0.059388,-0.026289,0,0.0037727,0,0,0,0.032405,-0.00057954,0.0095477,1.2607,0.013791,0.029266,7.8711e-07,0.89,0.88,0
0.044065,-0.011742,0.032385,-0.00056228,0.0095468,0.00066018,0,0,0.059379,-0.026284,0,0.0034329,0,0,0,0.032398,-0.00057557,0.0095468,1.1475,0.01379,0.029257,7.865e-07,0.9,0.88,0
0.044658,-0.011747,0.032382,-0.00056019,0.0095464,0.00059453,0,0,0.059372,-0.026277,0,0.0030916,0,0,0,0.032392,-0.00057098,0.0095464,1.0337,0.013789,0.029248,7.8596e-07,0.91,0.88,0
0.045252,-0.01175,0.032379,-0.00055756,0.0095464,0.00052867,0,0,0.059365,-0.02627,0,0.0027491,0,0,0,0.032388,-0.00056611,0.0095464,0.91938,0.013789,0.02924,7.8548e-07,0.92,0.88,0
0.045846,-0.011753,0.032377,-0.00055466,0.0095467,0.00046268,0,0,0.059359,-0.026263,0,0.0024059,0,0,0,0.032384,-0.00056122,0.0095467,0.8048,0.01379,0.029232,7.8506e-07,0.93,0.88,0
0.046439,-0.011755,0.032375,-0.00055173,0.0095471,0.00039661,0,0,0.059354,-0.026257,0,0.0020624,0,0,0,0.03238,-0.00055657,0.0095471,0.69002,0.01379,0.029226,7.8471e-07,0.94,0.88,0
0.047033,-0.011757,0.032374,-0.00054896,0.0095476,0.00033051,0,0,0.059349,-0.026251,0,0.0017186,0,0,0,0.032378,-0.00055234,0.0095476,0.57511,0.013791,0.02922,7.8442e-07,0.95,0.88,0
0.047626,-0.011759,0.032373,-0.00054649,0.0095481,0.00026439,0,0,0.059346,-0.026246,0,0.0013748,0,0,0,0.032376,-0.00054868,0.0095481,0.46013,0.013792,0.029215,7.8418e-07,0.96,0.88,0
0.04822,-0.011759,0.032373,-0.00054446,0.0095485,0.00019828,0,0,0.059343,-0.026242,0,0.001031,0,0,0,0.032374,-0.00054572,0.0095485,0.34511,0.013792,0.029211,7.84e-07,0.97,0.88,0
0.048813,-0.01176,0.032373,-0.00054294,0.0095489,0.00013217,0,0,0.059342,-0.026239,0,0.00068731,0,0,0,0.032373,-0.00054354,0.0095489,0.23007,0.013793,0.029209,7.8387e-07,0.98,0.88,0
0.049407,-0.011761,0.032372,-0.00054201,0.0095491,6.5501e-05,0,0,0.05934,-0.026237,0,0.00034061,0,0,0,0.032373,-0.00054221,0.0095491,0.11402,0.013793,0.029207,7.838e-07,0.99,0.88,0
0.049703,-0.011761,0.032372,-0.0005417,0.0095492,3.1876e-05,0,0,0.05934,-0.026236,0,0.00016575,0,0,0,0.032372,-0.00054176,0.0095492,0.05549,0.013793,0.029207,7.8377e-07,1,0.88,0
0.00023326,-0.00018967,0.03136,0.012921,0.013284,-0.0072878,0,0,0.046996,-0.00094458,0,-0.037897,0,0,0,0.033895,0.010386,0.013284,-19.162,0.019188,0.022203,5.3005e-07,0,0.89,0
0.00046996,-0.00038061,0.031428,0.012409,0.013151,-0.0072815,0,0,0.047519,-0.0019284,0,-0.037864,0,0,0,0.033899,0.0099379,0.013151,-18.731,0.018996,0.02253,5.4731e-07,0.01,0.89,0
0.00095038,-0.0007643,0.031671,0.011399,0.012921,-0.00725,0,0,0.04875,-0.0039568,0,-0.0377,0,0,0,0.034002,0.0090686,0.012921,-17.802,0.018664,0.02325,5.8641e-07,0.02,0.89,0
0.001445,-0.00115,0.032014,0.010386,0.01272,-0.0071584,0,0,0.050164,-0.0060686,0,-0.037224,0,0,0,0.034174,0.008226,0.01272,-16.767,0.018373,0.02402,6.288e-07,0.03,0.89,0
0.0019537,-0.0015345,0.032334,0.0093594,0.012508,-0.0069845,0,0,0.051547,-0.0081862,0,-0.036319,0,0,0,0.034296,0.007397,0.012508,-15.665,0.018067,0.024745,6.6768e-07,0.04,0.89,0
0.0024759,-0.0019141,0.032616,0.0083543,0.012291,-0.0067332,0,0,0.052845,-0.010236,0,-0.035013,0,0,0,0.034365,0.0066052,0.012291,-14.53,0.017754,0.025401,7.0161e-07,0.05,0.89,0
0.0030106,-0.0022856,0.032852,0.0073989,0.012075,-0.0064172,0,0,0.05402,-0.012159,0,-0.03337,0,0,0,0.034384,0.0058668,0.012075,-13.392,0.017442,0.025977,7.298e-07,0.06,0.89,0
0.0035563,-0.002646,0.033036,0.0065127,0.011865,-0.0060531,0,0,0.055046,-0.013915,0,-0.031476,0,0,0,0.034358,0.0051912,0.011865,-12.278,0.017138,0.026469,7.5212e-07,0.07,0.89,0
0.0041115,-0.0029931,0.033168,0.005707,0.011662,-0.0056587,0,0,0.055914,-0.015484,0,-0.029425,0,0,0,0.034293,0.0045817,0.011662,-11.208,0.016846,0.026881,7.6893e-07,0.08,0.89,0
0.0046746,-0.0033249,0.033251,0.0049856,0.011471,-0.0052502,0,0,0.056629,-0.016862,0,-0.027301,0,0,0,0.0342,0.0040375,0.011471,-10.197,0.016569,0.027218,7.809e-07,0.09,0.89,0
0.0052441,-0.0036402,0.033293,0.0043474,0.011292,-0.0048413,0,0,0.057203,-0.018056,0,-0.025175,0,0,0,0.034085,0.0035553,0.011292,-9.2533,0.016311,0.027491,7.8883e-07,0.1,0.89,0
0.0058186,-0.0039383,0.033301,0.0037883,0.011127,-0.0044423,0,0,0.057652,-0.01908,0,-0.0231,0,0,0,0.033958,0.0031308,0.011127,-8.3815,0.016072,0.027709,7.9353e-07,0.11,0.89,0
0.0063971,-0.0042186,0.033281,0.0033024,0.010975,-0.0040608,0,0,0.057996,-0.019949,0,-0.021116,0,0,0,0.033825,0.0027593,0.010975,-7.5823,0.015853,0.027881,7.9575e-07,0.12,0.89,0
0.0069786,-0.004481,0.033243,0.0028835,0.010838,-0.0037015,0,0,0.058253,-0.020682,0,-0.019248,0,0,0,0.03369,0.0024363,0.010838,-6.8541,0.015655,0.028015,7.9612e-07,0.13,0.89,0
0.0075622,-0.0047255,0.033192,0.0025254,0.010715,-0.0033669,0,0,0.058439,-0.021293,0,-0.017508,0,0,0,0.033559,0.0021581,0.010715,-6.1938,0.015477,0.028117,7.9516e-07,0.14,0.89,0
0.0081473,-0.0049522,0.033133,0.0022226,0.010607,-0.0030579,0,0,0.058568,-0.021798,0,-0.015901,0,0,0,0.033434,0.0019213,0.010607,-5.5969,0.015321,0.028192,7.9324e-07,0.15,0.89,0
0.0087335,-0.0051614,0.03307,0.0019702,0.010512,-0.0027742,0,0,0.05865,-0.022209,0,-0.014426,0,0,0,0.033317,0.0017233,0.010512,-5.0583,0.015184,0.028244,7.9065e-07,0.16,0.89,0
0.0093203,-0.0053532,0.033006,0.0017641,0.010431,-0.0025145,0,0,0.058695,-0.022534,0,-0.013075,0,0,0,0.033208,0.001562,0.010431,-4.5722,0.015067,0.028275,7.8758e-07,0.17,0.89,0
0.0099074,-0.0055278,0.032944,0.0016007,0.010364,-0.0022764,0,0,0.05871,-0.022783,0,-0.011837,0,0,0,0.03311,0.0014354,0.010364,-4.1321,0.01497,0.028288,7.8416e-07,0.18,0.89,0
0.010495,-0.0056853,0.032886,0.0014767,0.010309,-0.002057,0,0,0.058701,-0.022963,0,-0.010696,0,0,0,0.033021,0.0013418,0.010309,-3.7307,0.01489,0.028283,7.8047e-07,0.19,0.89,0
0.011081,-0.0058257,0.032832,0.0013886,0.010266,-0.0018526,0,0,0.058671,-0.023082,0,-0.0096334,0,0,0,0.032941,0.0012792,0.010266,-3.3598,0.014829,0.028262,7.7659e-07,0.2,0.89,0
0.011668,-0.0059487,0.032784,0.0013322,0.010235,-0.0016586,0,0,0.058628,-0.023147,0,-0.0086246,0,0,0,0.032872,0.0012444,0.010235,-3.0098,0.014784,0.028227,7.7264e-07,0.21,0.89,0
0.012254,-0.0060539,0.032745,0.0013022,0.010214,-0.0014695,0,0,0.058579,-0.023171,0,-0.0076412,0,0,0,0.032814,0.0012331,0.010214,-2.6695,0.014754,0.028185,7.6882e-07,0.22,0.89,0
0.01284,-0.0061407,0.032716,0.0012899,0.010202,-0.0012789,0,0,0.058537,-0.023171,0,-0.00665,0,0,0,0.032768,0.0012374,0.010202,-2.3261,0.014736,0.028141,7.6553e-07,0.23,0.89,0
0.013425,-0.006208,0.032702,0.0012824,0.010195,-0.0010801,0,0,0.058518,-0.023174,0,-0.0056165,0,0,0,0.03274,0.0012447,0.010195,-1.9665,0.014727,0.02811,7.6337e-07,0.24,0.89,0
0.01401,-0.0062546,0.032705,0.0012595,0.010189,-0.00086651,0,0,0.05854,-0.023217,0,-0.0045059,0,0,0,0.032729,0.0012349,0.010189,-1.5778,0.014718,0.028108,7.6293e-07,0.25,0.89,0
0.014596,-0.0062786,0.03272,0.0011979,0.010175,-0.0006265,0,0,0.058615,-0.023341,0,-0.0032578,0,0,0,0.032733,0.0011843,0.010175,-1.1394,0.014698,0.028152,7.6463e-07,0.26,0.89,0
0.015182,-0.0062772,0.03277,0.0010688,0.010152,-0.00033933,0,0,0.058807,-0.023615,0,-0.0017645,0,0,0,0.032775,0.0010634,0.010152,-0.61611,0.014663,0.028285,7.709e-07,0.27,0.89,0
0.015772,-0.006247,0.032894,0.00070024,0.010078,-2.7973e-05,0,0,0.05932,-0.024383,0,-0.00014546,0,0,0,0.032896,0.00069821,0.010078,-0.056149,0.014557,0.028682,7.8948e-07,0.28,0.89,0
0.016369,-0.0061896,0.033352,2.2057e-05,0.010012,0.00016672,0,0,0.059405,-0.025396,0,0.00082996,0,0,0,0.033354,1.9981e-05,0.010012,0.28162,0.014462,0.02963,8.5295e-07,0.29,0.89,0
0.016964,-0.0061289,0.033824,-0.0008176,0.009902,0.00026081,0,0,0.055311,-0.024323,0,0.0013144,0,0,0,0.03384,-0.00083365,0.009902,0.49924,0.014303,0.030761,9.4365e-07,0.3,0.89,0
0.017486,-0.0061115,0.033585,-0.0013494,0.0096707,0.00054183,0,0,0.04531,-0.020143,0,0.0021982,0,0,0,0.033623,-0.0013876,0.0096707,1.0392,0.013969,0.031028,9.5919e-07,0.31,0.89,0
0.017876,-0.0061584,0.033487,-0.0011641,0.0096969,0.00088607,0,0,0.035769,-0.016029,0,0.0027454,0,0,0,0.033525,-0.0012023,0.0096969,1.5422,0.014007,0.030777,9.2448e-07,0.32,0.89,0
0.018198,-0.0062432,0.03412,-0.00076205,0.010007,0.0009501,0,0,0.032038,-0.014313,0,0.0025246,0,0,0,0.034147,-0.00078861,0.010007,1.5602,0.014455,0.030982,9.3452e-07,0.33,0.89,0
0.018514,-0.0063364,0.034547,-0.00052319,0.010207,0.00086949,0,0,0.031642,-0.013949,0,0.0022607,0,0,0,0.034569,-0.00054497,0.010207,1.419,0.014744,0.031161,9.5337e-07,0.34,0.89,0
0.018831,-0.0064307,0.034565,-0.00029308,0.010281,0.00078913,0,0,0.031568,-0.013747,0,0.0020517,0,0,0,0.034583,-0.00031113,0.010281,1.2958,0.014851,0.030987,9.4787e-07,0.35,0.89,0
0.019146,-0.0065268,0.034526,-0.00010093,0.010328,0.00066797,0,0,0.031458,-0.013557,0,0.0017367,0,0,0,0.034539,-0.00011412,0.010328,1.1043,0.014917,0.03079,9.3866e-07,0.36,0.89,0
0.01946,-0.0066254,0.034478,8.0323e-06,0.010346,0.0005385,0,0,0.031372,-0.013439,0,0.0014001,0,0,0,0.034487,-6.0249e-07,0.010346,0.89456,0.014944,0.030653,9.3114e-07,0.37,0.89,0
0.019773,-0.0067263,0.034432,9.9175e-05,0.010359,0.00043137,0,0,0.031294,-0.013338,0,0.0011216,0,0,0,0.034437,9.3591e-05,0.010359,0.71952,0.014963,0.030534,9.2442e-07,0.38,0.89,0
0.020086,-0.0068291,0.034386,0.00022069,0.010382,0.00033455,0,0,0.031205,-0.01321,0,0.00086983,0,0,0,0.034389,0.00021722,0.010382,0.56072,0.014996,0.030393,9.1697e-07,0.39,0.89,0
0.020397,-0.0069338,0.034334,0.00034982,0.010405,0.00023157,0,0,0.031107,-0.013072,0,0.00060209,0,0,0,0.034336,0.00034803,0.010405,0.39013,0.01503,0.03024,9.0885e-07,0.4,0.89,0
0.020708,-0.0070405,0.034281,0.00046317,0.010423,0.00012314,0,0,0.031015,-0.012948,0,0.00032017,0,0,0,0.034282,0.00046251,0.010423,0.20839,0.015056,0.030102,9.0122e-07,0.41,0.89,0
0.021018,-0.0071491,0.034235,0.00055972,0.010439,1.5994e-05,0,0,0.030936,-0.012842,0,4.1585e-05,0,0,0,0.034236,0.00055952,0.010439,0.027009,0.015078,0.029983,8.9471e-07,0.42,0.89,0
0.021327,-0.0072598,0.034197,0.00064248,0.010452,-8.6391e-05,0,0,0.030869,-0.012752,0,-0.00022462,0,0,0,0.034197,0.00064209,0.010452,-0.14768,0.015097,0.029883,8.8925e-07,0.43,0.89,0
0.021635,-0.0073724,0.034164,0.00071076,0.010462,-0.00018336,0,0,0.030812,-0.012677,0,-0.00047673,0,0,0,0.034165,0.0007096,0.010462,-0.31415,0.015112,0.029801,8.847e-07,0.44,0.89,0
0.021943,-0.0074868,0.034134,0.00076317,0.010469,-0.00027461,0,0,0.030764,-0.012618,0,-0.000714,0,0,0,0.034136,0.00076078,0.010469,-0.47153,0.015122,0.029735,8.8098e-07,0.45,0.89,0
0.02225,-0.007603,0.034109,0.00079956,0.010472,-0.00036014,0,0,0.030727,-0.012575,0,-0.00093636,0,0,0,0.034113,0.00079555,0.010472,-0.61942,0.015127,0.029686,8.7809e-07,0.46,0.89,0
0.022557,-0.0077207,0.034087,0.00081921,0.010472,-0.00044027,0,0,0.0307,-0.012549,0,-0.0011447,0,0,0,0.034093,0.00081328,0.010472,-0.75809,0.015126,0.029655,8.7605e-07,0.47,0.89,0
0.022864,-0.0078399,0.03407,0.00082083,0.010467,-0.00051522,0,0,0.030684,-0.012541,0,-0.0013396,0,0,0,0.034078,0.00081276,0.010467,-0.88752,0.01512,0.029642,8.7493e-07,0.48,0.89,0
0.023171,-0.0079603,0.03406,0.00080436,0.010459,-0.00058514,0,0,0.030681,-0.012551,0,-0.0015214,0,0,0,0.03407,0.000794,0.010459,-1.0077,0.015108,0.02965,8.7483e-07,0.49,0.89,0
0.023478,-0.0080818,0.034058,0.00076905,0.010448,-0.00065004,0,0,0.030693,-0.012583,0,-0.0016901,0,0,0,0.03407,0.0007563,0.010448,-1.1182,0.015092,0.02968,8.7597e-07,0.5,0.89,0
0.023785,-0.0082043,0.034064,0.00071044,0.010432,-0.00070738,0,0,0.030721,-0.012638,0,-0.0018392,0,0,0,0.034079,0.0006954,0.010432,-1.2144,0.015069,0.029736,8.7844e-07,0.51,0.89,0
0.024092,-0.0083274,0.034072,0.00062807,0.01041,-0.0007516,0,0,0.030761,-0.012717,0,-0.0019542,0,0,0,0.034089,0.00061116,0.01041,-1.2867,0.015037,0.029812,8.8169e-07,0.52,0.89,0
0.0244,-0.0084509,0.034077,0.00054353,0.010386,-0.00078328,0,0,0.030798,-0.012795,0,-0.0020365,0,0,0,0.034095,0.00052523,0.010386,-1.3373,0.015002,0.029885,8.8466e-07,0.53,0.89,0
0.024708,-0.0085747,0.034085,0.00047774,0.010369,-0.00082009,0,0,0.030831,-0.012858,0,-0.0021322,0,0,0,0.034105,0.00045771,0.010369,-1.397,0.014977,0.029948,8.8738e-07,0.54,0.89,0
0.025017,-0.0086992,0.034097,0.00038197,0.010344,-0.00087548,0,0,0.030879,-0.01295,0,-0.0022762,0,0,0,0.03412,0.00035919,0.010344,-1.4863,0.014941,0.03004,8.914e-07,0.55,0.89,0
0.025326,-0.0088243,0.034103,0.00019097,0.010288,-0.00092114,0,0,0.030959,-0.013126,0,-0.002395,0,0,0,0.034128,0.00016593,0.010288,-1.5547,0.014861,0.030201,8.9764e-07,0.56,0.89,0
0.025636,-0.0089494,0.034058,-5.2073e-05,0.010202,-0.00092723,0,0,0.031013,-0.01333,0,-0.0024108,0,0,0,0.034083,-7.7456e-05,0.010202,-1.5559,0.014736,0.030356,9.0099e-07,0.57,0.89,0
0.025946,-0.0090738,0.033611,-0.00032383,0.0099862,-0.00093645,0,0,0.03139,-0.013705,0,-0.0024808,0,0,0,0.033637,-0.00035021,0.0099862,-1.5789,0.014424,0.030178,8.8188e-07,0.58,0.89,0
0.026261,-0.0092048,0.032965,-0.00077262,0.0096576,-0.00081086,0,0,0.035045,-0.015401,0,-0.0024872,0,0,0,0.033,-0.00080761,0.0096576,-1.451,0.01395,0.029992,8.7217e-07,0.59,0.89,0
0.026644,-0.0093706,0.033046,-0.0010078,0.0096115,-0.00042331,0,0,0.044407,-0.01942,0,-0.0017041,0,0,0,0.033081,-0.0010427,0.0096115,-0.85856,0.013883,0.030267,9.0561e-07,0.6,0.89,0
0.027155,-0.0095967,0.033272,-0.00053616,0.0098207,-0.00011263,0,0,0.054225,-0.023506,0,-0.00059965,0,0,0,0.033286,-0.00055038,0.0098207,-0.2545,0.014185,0.030041,8.9107e-07,0.61,0.89,0
0.027739,-0.0098631,0.032796,0.00022881,0.0099075,2.6595e-06,0,0,0.058258,-0.024606,0,3.9184e-05,0,0,0,0.032797,0.00022747,0.0099075,0.011424,0.014311,0.02897,8.0548e-07,0.62,0.89,0
0.028325,-0.010125,0.032335,0.00082355,0.0099475,0.00020609,0,0,0.058207,-0.023722,0,0.0010716,0,0,0,0.032338,0.00082009,0.0099475,0.3808,0.014369,0.02809,7.4652e-07,0.63,0.89,0
0.028903,-0.010359,0.032203,0.0011028,0.0099917,0.00051187,0,0,0.057749,-0.023111,0,0.0026617,0,0,0,0.032213,0.0010927,0.0099917,0.94503,0.014432,0.027762,7.3068e-07,0.64,0.89,0
0.02948,-0.010565,0.032141,0.0011324,0.0099822,0.00077974,0,0,0.057614,-0.023009,0,0.0040546,0,0,0,0.032162,0.0011118,0.0099822,1.4404,0.014419,0.027701,7.2676e-07,0.65,0.89,0
0.030056,-0.010746,0.032112,0.0010784,0.0099571,0.00098481,0,0,0.057602,-0.023084,0,0.005121,0,0,0,0.032144,0.0010467,0.0099571,1.8161,0.014382,0.027737,7.2724e-07,0.66,0.89,0
0.030632,-0.010906,0.032092,0.00096872,0.0099181,0.0011446,0,0,0.057651,-0.023268,0,0.0059518,0,0,0,0.032134,0.00092636,0.0099181,2.1033,0.014326,0.027824,7.2973e-07,0.67,0.89,0
0.031209,-0.011047,0.032083,0.0008263,0.0098728,0.0012678,0,0,0.057746,-0.023521,0,0.0065926,0,0,0,0.032134,0.00077479,0.0098728,2.3188,0.014261,0.027945,7.3374e-07,0.68,0.89,0
0.031787,-0.011172,0.032084,0.00067095,0.0098266,0.0013589,0,0,0.05787,-0.023805,0,0.0070662,0,0,0,0.032143,0.00061219,0.0098266,2.4723,0.014194,0.028081,7.3857e-07,0.69,0.89,0
0.032366,-0.011282,0.032091,0.00051526,0.0097819,0.0014225,0,0,0.058004,-0.024093,0,0.0073972,0,0,0,0.032155,0.00045127,0.0097819,2.5743,0.014129,0.02822,7.4356e-07,0.7,0.89,0
0.032947,-0.01138,0.0321,0.0003667,0.0097399,0.0014634,0,0,0.058135,-0.02437,0,0.0076097,0,0,0,0.032167,0.00029934,0.0097399,2.6349,0.014069,0.028352,7.4828e-07,0.71,0.89,0
0.033529,-0.011466,0.032108,0.00022944,0.0097012,0.0014855,0,0,0.058257,-0.024627,0,0.0077247,0,0,0,0.032177,0.00016036,0.0097012,2.6625,0.014013,0.028472,7.5251e-07,0.72,0.89,0
0.034112,-0.011542,0.032115,0.00010562,0.0096662,0.0014921,0,0,0.058367,-0.024858,0,0.0077591,0,0,0,0.032185,3.6205e-05,0.0096662,2.6634,0.013962,0.028577,7.5618e-07,0.73,0.89,0
0.034696,-0.011609,0.032121,-3.9933e-06,0.0096351,0.0014859,0,0,0.058463,-0.025062,0,0.0077267,0,0,0,0.03219,-7.2586e-05,0.0096351,2.6429,0.013917,0.028669,7.5925e-07,0.74,0.89,0
0.035281,-0.011667,0.032126,-9.9454e-05,0.0096078,0.0014689,0,0,0.058546,-0.025239,0,0.0076384,0,0,0,0.032192,-0.00016629,0.0096078,2.6048,0.013878,0.028746,7.6177e-07,0.75,0.89,0
0.035867,-0.011719,0.032129,-0.00018137,0.0095842,0.0014429,0,0,0.058616,-0.025391,0,0.0075033,0,0,0,0.032193,-0.00024571,0.0095842,2.5523,0.013844,0.02881,7.6379e-07,0.76,0.89,0
0.036453,-0.011764,0.032131,-0.00025068,0.0095642,0.0014094,0,0,0.058674,-0.025519,0,0.0073289,0,0,0,0.032193,-0.00031193,0.0095642,2.4877,0.013815,0.028863,7.6537e-07,0.77,0.89,0
0.03704,-0.011803,0.032133,-0.00030849,0.0095474,0.0013695,0,0,0.058723,-0.025625,0,0.0071215,0,0,0,0.032191,-0.00036623,0.0095474,2.4133,0.013791,0.028905,7.6657e-07,0.78,0.89,0
0.037628,-0.011838,0.032135,-0.000356,0.0095336,0.0013243,0,0,0.058763,-0.025713,0,0.0068866,0,0,0,0.032189,-0.00040993,0.0095336,2.3305,0.013771,0.028938,7.6747e-07,0.79,0.89,0
0.038216,-0.011867,0.032136,-0.00039442,0.0095226,0.0012747,0,0,0.058796,-0.025784,0,0.0066287,0,0,0,0.032186,-0.00044434,0.0095226,2.2408,0.013755,0.028963,7.6813e-07,0.8,0.89,0
0.038804,-0.011893,0.032138,-0.00042492,0.0095139,0.0012215,0,0,0.058822,-0.025841,0,0.0063518,0,0,0,0.032184,-0.00047073,0.0095139,2.1454,0.013742,0.028982,7.6859e-07,0.81,0.89,0
0.039392,-0.011915,0.03214,-0.00044862,0.0095074,0.0011653,0,0,0.058845,-0.025886,0,0.0060593,0,0,0,0.032182,-0.00049029,0.0095074,2.0453,0.013733,0.028996,7.689e-07,0.82,0.89,0
0.039981,-0.011933,0.032142,-0.00046654,0.0095027,0.0011066,0,0,0.058863,-0.02592,0,0.0057541,0,0,0,0.03218,-0.0005041,0.0095027,1.9414,0.013726,0.029005,7.691e-07,0.83,0.89,0
0.040569,-0.011949,0.032145,-0.0004796,0.0094997,0.0010459,0,0,0.058878,-0.025946,0,0.0054387,0,0,0,0.032179,-0.00051316,0.0094997,1.8344,0.013722,0.029012,7.6923e-07,0.84,0.89,0
0.041158,-0.011963,0.032148,-0.00048866,0.0094979,0.0009837,0,0,0.058891,-0.025965,0,0.0051152,0,0,0,0.032178,-0.00051835,0.0094979,1.7249,0.013719,0.029015,7.693e-07,0.85,0.89,0
0.041747,-0.011974,0.032152,-0.00049446,0.0094973,0.00092029,0,0,0.058902,-0.025979,0,0.0047855,0,0,0,0.032178,-0.00052044,0.0094973,1.6135,0.013718,0.029017,7.6935e-07,0.86,0.89,0
0.042336,-0.011984,0.032156,-0.00049764,0.0094975,0.00085596,0,0,0.058912,-0.025987,0,0.004451,0,0,0,0.032179,-0.00052013,0.0094975,1.5006,0.013719,0.029017,7.6937e-07,0.87,0.89,0
0.042925,-0.011992,0.03216,-0.00049878,0.0094985,0.00079096,0,0,0.058921,-0.025993,0,0.004113,0,0,0,0.03218,-0.00051799,0.0094985,1.3866,0.01372,0.029016,7.6938e-07,0.88,0.89,0
0.043515,-0.011998,0.032165,-0.00049838,0.0095,0.00072548,0,0,0.058929,-0.025996,0,0.0037725,0,0,0,0.032181,-0.00051455,0.0095,1.2718,0.013722,0.029015,7.694e-07,0.89,0.89,0
0.044104,-0.012004,0.032169,-0.00049685,0.0095018,0.00065968,0,0,0.058936,-0.025996,0,0.0034303,0,0,0,0.032183,-0.00051023,0.0095018,1.1564,0.013725,0.029013,7.6942e-07,0.9,0.89,0
0.044693,-0.012008,0.032174,-0.00049456,0.0095038,0.00059369,0,0,0.058942,-0.025996,0,0.0030872,0,0,0,0.032185,-0.00050541,0.0095038,1.0408,0.013728,0.029011,7.6944e-07,0.91,0.89,0
0.045283,-0.012012,0.032178,-0.00049181,0.009506,0.0005276,0,0,0.058948,-0.025994,0,0.0027435,0,0,0,0.032187,-0.0005004,0.009506,0.92496,0.013731,0.029009,7.6946e-07,0.92,0.89,0
0.045872,-0.012015,0.032183,-0.00048887,0.0095081,0.00046148,0,0,0.058954,-0.025992,0,0.0023997,0,0,0,0.032189,-0.00049545,0.0095081,0.80908,0.013734,0.029007,7.6949e-07,0.93,0.89,0
0.046462,-0.012017,0.032186,-0.00048593,0.0095101,0.00039539,0,0,0.058958,-0.02599,0,0.002056,0,0,0,0.032191,-0.00049078,0.0095101,0.69323,0.013737,0.029005,7.6953e-07,0.94,0.89,0
0.047052,-0.012018,0.03219,-0.00048318,0.009512,0.00032935,0,0,0.058962,-0.025987,0,0.0017126,0,0,0,0.032193,-0.00048656,0.009512,0.57746,0.01374,0.029003,7.6956e-07,0.95,0.89,0
0.047641,-0.01202,0.032193,-0.00048075,0.0095136,0.00026337,0,0,0.058966,-0.025985,0,0.0013695,0,0,0,0.032195,-0.00048294,0.0095136,0.46179,0.013742,0.029002,7.6959e-07,0.96,0.89,0
0.048231,-0.012021,0.032195,-0.00047875,0.0095149,0.00019745,0,0,0.058968,-0.025983,0,0.0010268,0,0,0,0.032196,-0.00048001,0.0095149,0.34622,0.013744,0.029001,7.6962e-07,0.97,0.89,0
0.048821,-0.012021,0.032197,-0.00047727,0.0095158,0.0001316,0,0,0.05897,-0.025982,0,0.00068432,0,0,0,0.032197,-0.00047786,0.0095158,0.23076,0.013745,0.029,7.6964e-07,0.98,0.89,0
0.04941,-0.012022,0.032198,-0.00047635,0.0095164,6.5228e-05,0,0,0.058971,-0.025981,0,0.00033919,0,0,0,0.032198,-0.00047655,0.0095164,0.11438,0.013746,0.028999,7.6965e-07,0.99,0.89,0
0.049705,-0.012022,0.032198,-0.00047605,0.0095166,3.1771e-05,0,0,0.058972,-0.025981,0,0.00016521,0,0,0,0.032198,-0.00047611,0.0095166,0.055711,0.013746,0.028999,7.6965e-07,1,0.89,0
0.00023513,-0.0001994,0.031609,0.012993,0.013381,-0.0076603,0,0,0.047395,-0.0010085,0,-0.039833,0,0,0,0.034358,0.010244,0.013381,-19.726,0.019327,0.022711,5.6322e-07,0,0.9,0
0.00047395,-0.00040051,0.031681,0.012441,0.013237,-0.0076535,0,0,0.047955,-0.0020685,0,-0.039798,0,0,0,0.034358,0.0097637,0.013237,-19.264,0.01912,0.023058,5.8185e-07,0.01,0.9,0
0.00095911,-0.00080522,0.031936,0.011343,0.012984,-0.0076166,0,0,0.049276,-0.0042656,0,-0.039606,0,0,0,0.034452,0.008827,0.012984,-18.263,0.018754,0.023824,6.2404e-07,0.02,0.9,0
0.0014595,-0.0012129,0.032291,0.010233,0.012757,-0.0075047,0,0,0.050788,-0.0065627,0,-0.039024,0,0,0,0.034609,0.007916,0.012757,-17.135,0.018427,0.024634,6.6906e-07,0.03,0.9,0
0.0019749,-0.0016193,0.032613,0.0091135,0.012518,-0.0072912,0,0,0.052248,-0.0088518,0,-0.037914,0,0,0,0.034698,0.0070284,0.012518,-15.928,0.018082,0.025377,7.0878e-07,0.04,0.9,0
0.0025044,-0.0020201,0.032884,0.0080295,0.012274,-0.0069862,0,0,0.053587,-0.011036,0,-0.036328,0,0,0,0.03472,0.0061936,0.012274,-14.687,0.017729,0.026027,7.4151e-07,0.05,0.9,0
0.0030466,-0.0024112,0.033094,0.0070158,0.012033,-0.0066092,0,0,0.054758,-0.013044,0,-0.034368,0,0,0,0.03468,0.0054298,0.012033,-13.453,0.017381,0.026573,7.6663e-07,0.06,0.9,0
0.0035996,-0.0027895,0.033237,0.0060934,0.011799,-0.0061837,0,0,0.055739,-0.014835,0,-0.032155,0,0,0,0.034586,0.0047448,0.011799,-12.259,0.017043,0.027015,7.8441e-07,0.07,0.9,0
0.0041614,-0.0031522,0.033318,0.0052712,0.011577,-0.0057326,0,0,0.056527,-0.016394,0,-0.02981,0,0,0,0.03445,0.004139,0.011577,-11.126,0.016722,0.027362,7.9569e-07,0.08,0.9,0
0.0047301,-0.0034977,0.033343,0.0045496,0.011368,-0.0052756,0,0,0.057135,-0.017727,0,-0.027433,0,0,0,0.034284,0.0036084,0.011368,-10.069,0.01642,0.027626,8.0161e-07,0.09,0.9,0
0.0053041,-0.0038246,0.033322,0.0039233,0.011174,-0.0048276,0,0,0.057586,-0.018851,0,-0.025103,0,0,0,0.034099,0.0031465,0.011174,-9.0955,0.01614,0.027822,8.0334e-07,0.1,0.9,0
0.0058819,-0.0041326,0.033266,0.0033842,0.010995,-0.004399,0,0,0.057905,-0.019788,0,-0.022875,0,0,0,0.033904,0.0027464,0.010995,-8.2064,0.015882,0.027962,8.0197e-07,0.11,0.9,0
0.0064622,-0.0044211,0.033185,0.0029233,0.010832,-0.0039965,0,0,0.058116,-0.020564,0,-0.020782,0,0,0,0.033707,0.0024014,0.010832,-7.4002,0.015647,0.028057,7.9841e-07,0.12,0.9,0
0.0070442,-0.0046904,0.033086,0.002532,0.010686,-0.0036234,0,0,0.058242,-0.021199,0,-0.018842,0,0,0,0.033513,0.0021056,0.010686,-6.6728,0.015435,0.028117,7.9339e-07,0.13,0.9,0
0.007627,-0.0049406,0.032978,0.0022022,0.010554,-0.0032811,0,0,0.058303,-0.021715,0,-0.017061,0,0,0,0.033326,0.0018542,0.010554,-6.0188,0.015245,0.028149,7.8744e-07,0.14,0.9,0
0.0082102,-0.0051719,0.032866,0.0019271,0.010438,-0.0029689,0,0,0.058313,-0.022128,0,-0.015438,0,0,0,0.03315,0.0016431,0.010438,-5.4321,0.015077,0.028159,7.8094e-07,0.15,0.9,0
0.0087933,-0.0053848,0.032753,0.0017009,0.010336,-0.0026853,0,0,0.058283,-0.022452,0,-0.013964,0,0,0,0.032985,0.001469,0.010336,-4.906,0.01493,0.02815,7.7415e-07,0.16,0.9,0
0.0093759,-0.0055795,0.032642,0.0015187,0.010248,-0.002428,0,0,0.058224,-0.022697,0,-0.012626,0,0,0,0.032831,0.0013293,0.010248,-4.4333,0.014803,0.028124,7.6723e-07,0.17,0.9,0
0.0099578,-0.0057562,0.032536,0.0013761,0.010174,-0.0021939,0,0,0.058141,-0.022873,0,-0.011408,0,0,0,0.03269,0.0012215,0.010174,-4.0069,0.014695,0.028084,7.6026e-07,0.18,0.9,0
0.010539,-0.0059152,0.032434,0.0012694,0.010111,-0.0019795,0,0,0.05804,-0.022988,0,-0.010293,0,0,0,0.03256,0.0011434,0.010111,-3.6188,0.014605,0.02803,7.5329e-07,0.19,0.9,0
0.011119,-0.0060565,0.032339,0.0011945,0.01006,-0.0017809,0,0,0.057925,-0.02305,0,-0.0092608,0,0,0,0.032441,0.0010923,0.01006,-3.261,0.014531,0.027965,7.4637e-07,0.2,0.9,0
0.011697,-0.0061799,0.03225,0.0011465,0.010019,-0.0015938,0,0,0.057801,-0.023069,0,-0.0082876,0,0,0,0.032332,0.0010645,0.010019,-2.9245,0.014472,0.02789,7.396e-07,0.21,0.9,0
0.012275,-0.0062852,0.03217,0.0011192,0.0099867,-0.0014133,0,0,0.057676,-0.023056,0,-0.007349,0,0,0,0.032235,0.0010544,0.0099867,-2.5995,0.014425,0.027811,7.3314e-07,0.22,0.9,0
0.012851,-0.0063718,0.032099,0.0011034,0.0099608,-0.0012343,0,0,0.05756,-0.023029,0,-0.0064185,0,0,0,0.032149,0.0010538,0.0099608,-2.2758,0.014388,0.027736,7.2729e-07,0.23,0.9,0
0.013426,-0.0064391,0.032042,0.0010865,0.0099385,-0.0010516,0,0,0.057468,-0.023015,0,-0.0054684,0,0,0,0.032078,0.0010503,0.0099385,-1.9427,0.014356,0.027676,7.2256e-07,0.24,0.9,0
0.014,-0.006486,0.032002,0.0010511,0.0099161,-0.00085873,0,0,0.057425,-0.023049,0,-0.0044654,0,0,0,0.032027,0.0010266,0.0099161,-1.5878,0.014323,0.027649,7.1972e-07,0.25,0.9,0
0.014574,-0.0065113,0.032,0.00097446,0.0098922,-0.00064726,0,0,0.057479,-0.023186,0,-0.0033658,0,0,0,0.032014,0.00096012,0.0098922,-1.1956,0.014289,0.02769,7.206e-07,0.26,0.9,0
0.01515,-0.0065132,0.032074,0.00080904,0.009865,-0.00041564,0,0,0.057744,-0.023546,0,-0.0021613,0,0,0,0.032081,0.00080234,0.009865,-0.76522,0.01425,0.027875,7.2937e-07,0.27,0.9,0
0.015729,-0.0064912,0.032265,0.00046423,0.0098187,-0.0001974,0,0,0.05836,-0.024322,0,-0.0010265,0,0,0,0.032268,0.00046124,0.0098187,-0.36305,0.014183,0.028313,7.5143e-07,0.28,0.9,0
0.016317,-0.0064474,0.032587,-5.7005e-05,0.0097591,-5.7465e-05,0,0,0.059354,-0.025522,0,-0.00029882,0,0,0,0.03259,-5.9486e-05,0.0097591,-0.11088,0.014097,0.029015,7.8854e-07,0.29,0.9,0
0.016916,-0.0063857,0.033534,-0.000862,0.0098016,-0.00014911,0,0,0.058011,-0.025752,0,-0.00052996,0,0,0,0.033543,-0.00087096,0.0098016,-0.21571,0.014158,0.03052,9.1396e-07,0.3,0.9,0
0.017485,-0.0063299,0.034312,-0.0015641,0.0098245,-0.00013381,0,0,0.050851,-0.023145,0,-0.000558,0,0,0,0.034333,-0.0015851,0.0098245,-0.13407,0.014191,0.031804,1.051e-06,0.31,0.9,0
0.017947,-0.0063272,0.033774,-0.0014343,0.009702,0.00036482,0,0,0.041021,-0.0188,0,0.00088117,0,0,0,0.0338,-0.00146,0.009702,0.65008,0.014014,0.031222,1.0101e-06,0.32,0.9,0
0.018308,-0.0063876,0.033551,-0.00093198,0.0097857,0.00080487,0,0,0.034423,-0.015551,0,0.0021057,0,0,0,0.033576,-0.00095674,0.0097857,1.3084,0.014135,0.03061,9.3103e-07,0.33,0.9,0
0.01863,-0.0064757,0.034219,-0.00054495,0.010102,0.00090637,0,0,0.031996,-0.014138,0,0.0023487,0,0,0,0.034244,-0.00056962,0.010102,1.474,0.014592,0.030893,9.375e-07,0.34,0.9,0
0.018946,-0.0065676,0.034546,-0.00014574,0.01032,0.00084978,0,0,0.031494,-0.013606,0,0.0022094,0,0,0,0.034567,-0.00016701,0.01032,1.4016,0.014907,0.030858,9.4241e-07,0.35,0.9,0
0.01926,-0.0066616,0.034505,7.4822e-05,0.010374,0.0006986,0,0,0.031371,-0.013389,0,0.0018164,0,0,0,0.03452,6.0205e-05,0.010374,1.1613,0.014985,0.030634,9.3205e-07,0.36,0.9,0
0.019574,-0.0067591,0.034442,9.4973e-05,0.010361,0.00057021,0,0,0.031306,-0.013346,0,0.0014825,0,0,0,0.034452,8.5346e-05,0.010361,0.95073,0.014966,0.030553,9.2583e-07,0.37,0.9,0
0.019886,-0.0068592,0.034405,0.00016905,0.010372,0.00048944,0,0,0.031243,-0.013264,0,0.0012726,0,0,0,0.034413,0.00016191,0.010372,0.81868,0.014982,0.030457,9.2043e-07,0.38,0.9,0
0.020198,-0.0069607,0.034357,0.00032996,0.010406,0.00040205,0,0,0.031136,-0.013099,0,0.0010453,0,0,0,0.034362,0.00032496,0.010406,0.67652,0.015031,0.030283,9.1164e-07,0.39,0.9,0
0.020509,-0.007064,0.034293,0.00047392,0.01043,0.00028782,0,0,0.031022,-0.012943,0,0.00074832,0,0,0,0.034296,0.0004712,0.01043,0.48724,0.015066,0.030107,9.0208e-07,0.4,0.9,0
0.020819,-0.0071694,0.034239,0.00057835,0.010445,0.00016597,0,0,0.030932,-0.012827,0,0.00043152,0,0,0,0.03424,0.0005773,0.010445,0.28225,0.015087,0.029973,8.9452e-07,0.41,0.9,0
0.021128,-0.007277,0.0342,0.00066466,0.010459,5.2251e-05,0,0,0.030862,-0.012733,0,0.00013585,0,0,0,0.0342,0.00066438,0.010459,0.089065,0.015108,0.029868,8.8879e-07,0.42,0.9,0
0.021436,-0.0073868,0.034169,0.00074315,0.010473,-5.3578e-05,0,0,0.030804,-0.012649,0,-0.0001393,0,0,0,0.034169,0.00074289,0.010473,-0.092012,0.015128,0.029778,8.8403e-07,0.43,0.9,0
0.021744,-0.0074987,0.034139,0.00080634,0.010484,-0.00015391,0,0,0.030752,-0.012581,0,-0.00040017,0,0,0,0.03414,0.00080547,0.010484,-0.26467,0.015143,0.029703,8.7996e-07,0.44,0.9,0
0.022051,-0.0076126,0.034111,0.00085113,0.010489,-0.00024775,0,0,0.030709,-0.012529,0,-0.00064414,0,0,0,0.034113,0.00084915,0.010489,-0.42682,0.01515,0.029644,8.7654e-07,0.45,0.9,0
0.022358,-0.0077283,0.034085,0.00088205,0.01049,-0.00033515,0,0,0.030673,-0.01249,0,-0.0008714,0,0,0,0.034088,0.00087855,0.01049,-0.57831,0.015152,0.029599,8.7374e-07,0.46,0.9,0
0.022665,-0.0078458,0.034061,0.00089845,0.010488,-0.0004183,0,0,0.030645,-0.012466,0,-0.0010876,0,0,0,0.034066,0.00089307,0.010488,-0.72254,0.015149,0.029567,8.716e-07,0.47,0.9,0
0.022971,-0.0079649,0.034038,0.00089462,0.01048,-0.00049745,0,0,0.030626,-0.012461,0,-0.0012934,0,0,0,0.034046,0.00088706,0.01048,-0.85964,0.015138,0.029554,8.702e-07,0.48,0.9,0
0.023277,-0.0080854,0.034019,0.00087245,0.010467,-0.00057206,0,0,0.030617,-0.012473,0,-0.0014874,0,0,0,0.034029,0.0008625,0.010467,-0.98837,0.01512,0.029558,8.696e-07,0.49,0.9,0
0.023583,-0.0082073,0.034009,0.00083813,0.010454,-0.00064514,0,0,0.030621,-0.012501,0,-0.0016774,0,0,0,0.034022,0.0008255,0.010454,-1.1137,0.0151,0.029582,8.7015e-07,0.5,0.9,0
0.02389,-0.0083304,0.034016,0.00078013,0.010439,-0.00071781,0,0,0.03065,-0.012556,0,-0.0018663,0,0,0,0.034032,0.00076455,0.010439,-1.2365,0.015078,0.029639,8.7272e-07,0.51,0.9,0
0.024196,-0.0084544,0.034035,0.00067609,0.010413,-0.00077555,0,0,0.030708,-0.012658,0,-0.0020164,0,0,0,0.034053,0.00065801,0.010413,-1.331,0.015041,0.029742,8.7749e-07,0.52,0.9,0
0.024504,-0.0085787,0.034041,0.00054719,0.010376,-0.00080072,0,0,0.030764,-0.012778,0,-0.0020819,0,0,0,0.03406,0.00052804,0.010376,-1.3687,0.014988,0.029852,8.8183e-07,0.53,0.9,0
0.024812,-0.008703,0.034039,0.00049406,0.01036,-0.00081463,0,0,0.030782,-0.012825,0,-0.002118,0,0,0,0.034058,0.00047426,0.01036,-1.3903,0.014964,0.029894,8.8327e-07,0.54,0.9,0
0.025119,-0.0088282,0.034065,0.00048293,0.010364,-0.00087206,0,0,0.030811,-0.012846,0,-0.0022674,0,0,0,0.034088,0.00046012,0.010364,-1.4861,0.014971,0.029931,8.8598e-07,0.55,0.9,0
0.025428,-0.0089553,0.034072,0.00026316,0.010301,-0.0009504,0,0,0.030903,-0.013049,0,-0.002471,0,0,0,0.034099,0.00023625,0.010301,-1.6087,0.014879,0.03012,8.9327e-07,0.56,0.9,0
0.025737,-0.0090828,0.03372,-0.00014872,0.010071,-0.00093666,0,0,0.031374,-0.013573,0,-0.0024227,0,0,0,0.033747,-0.00017576,0.010071,-1.5627,0.014547,0.030136,8.8669e-07,0.57,0.9,0
0.026053,-0.0092124,0.033034,-0.00056539,0.0097407,-0.00077071,0,0,0.033741,-0.014962,0,-0.0019837,0,0,0,0.033058,-0.00058961,0.0097407,-1.2807,0.01407,0.029855,8.7926e-07,0.58,0.9,0
0.026407,-0.0093673,0.033235,-0.0010887,0.009644,-0.00027928,0,0,0.040204,-0.018128,0,-0.00055303,0,0,0,0.03326,-0.0011139,0.009644,-0.51862,0.01393,0.030463,9.5387e-07,0.59,0.9,0
0.02686,-0.0095814,0.033754,-0.0012442,0.009753,0.00025643,0,0,0.049845,-0.022357,0,0.0011104,0,0,0,0.033777,-0.0012667,0.009753,0.34608,0.014088,0.031052,9.9295e-07,0.6,0.9,0
0.027418,-0.009845,0.032976,-0.00060537,0.0097112,0.00030243,0,0,0.05687,-0.024918,0,0.001303,0,0,0,0.032987,-0.00061609,0.0097112,0.48791,0.014027,0.029821,8.6315e-07,0.61,0.9,0
0.028005,-0.010113,0.03203,0.00012866,0.0096477,0.00023311,0,0,0.058195,-0.02475,0,0.0012122,0,0,0,0.032035,0.00012436,0.0096477,0.42938,0.013936,0.028374,7.4434e-07,0.62,0.9,0
0.028582,-0.010362,0.031699,0.00058399,0.009685,0.00038336,0,0,0.057237,-0.023663,0,0.0019934,0,0,0,0.031706,0.00057734,0.009685,0.71333,0.013989,0.027721,7.0976e-07,0.63,0.9,0
0.02915,-0.01059,0.031498,0.00085312,0.0097054,0.00059976,0,0,0.056661,-0.023016,0,0.0031187,0,0,0,0.031511,0.0008402,0.0097054,1.1243,0.014019,0.027339,6.8988e-07,0.64,0.9,0
0.029715,-0.010794,0.031408,0.00093274,0.0097023,0.00081552,0,0,0.056436,-0.022801,0,0.0042407,0,0,0,0.031431,0.00091022,0.0097023,1.5326,0.014014,0.027212,6.8279e-07,0.65,0.9,0
0.030279,-0.010976,0.031391,0.00091103,0.0096907,0.00099554,0,0,0.056421,-0.022827,0,0.0051768,0,0,0,0.031424,0.00087813,0.0096907,1.8685,0.013998,0.027231,6.8318e-07,0.66,0.9,0
0.030843,-0.011137,0.031406,0.00083388,0.009672,0.0011389,0,0,0.056508,-0.022979,0,0.0059222,0,0,0,0.031449,0.00079126,0.009672,2.1299,0.013971,0.027322,6.8697e-07,0.67,0.9,0
0.031409,-0.011281,0.031434,0.00072331,0.0096471,0.0012514,0,0,0.056645,-0.023202,0,0.0065073,0,0,0,0.031485,0.00067226,0.0096471,2.3289,0.013935,0.027448,6.9234e-07,0.68,0.9,0
0.031976,-0.011408,0.031468,0.000596,0.0096192,0.0013371,0,0,0.056807,-0.02346,0,0.0069528,0,0,0,0.031526,0.00053812,0.0096192,2.4747,0.013894,0.027592,6.9842e-07,0.69,0.9,0
0.032545,-0.011521,0.031505,0.00046402,0.0095907,0.0013991,0,0,0.056977,-0.023729,0,0.0072753,0,0,0,0.031568,0.00040105,0.0095907,2.5751,0.013853,0.027738,7.0463e-07,0.7,0.9,0
0.033116,-0.011622,0.031542,0.00033529,0.0095631,0.0014405,0,0,0.057145,-0.023992,0,0.0074908,0,0,0,0.031608,0.00026892,0.0095631,2.6371,0.013813,0.027879,7.1061e-07,0.71,0.9,0
0.033688,-0.01171,0.031577,0.00021465,0.0095376,0.0014643,0,0,0.057303,-0.02424,0,0.0076145,0,0,0,0.031646,0.00014642,0.0095376,2.6672,0.013777,0.02801,7.1614e-07,0.72,0.9,0
0.034262,-0.011788,0.03161,0.00010477,0.0095146,0.001473,0,0,0.057449,-0.024465,0,0.0076595,0,0,0,0.031679,3.6053e-05,0.0095146,2.6709,0.013743,0.028128,7.2112e-07,0.73,0.9,0
0.034837,-0.011857,0.031641,6.9171e-06,0.0094944,0.0014688,0,0,0.057581,-0.024667,0,0.0076377,0,0,0,0.031709,-6.1139e-05,0.0094944,2.6526,0.013714,0.028233,7.2553e-07,0.74,0.9,0
0.035413,-0.011918,0.031669,-7.8622e-05,0.0094772,0.0014536,0,0,0.057699,-0.024845,0,0.0075589,0,0,0,0.031736,-0.00014505,0.0094772,2.6161,0.013689,0.028323,7.2937e-07,0.75,0.9,0
0.035991,-0.011971,0.031695,-0.00015217,0.0094629,0.0014292,0,0,0.057804,-0.024999,0,0.0074316,0,0,0,0.031759,-0.00021619,0.0094629,2.5643,0.013669,0.028401,7.327e-07,0.76,0.9,0
0.036569,-0.012017,0.031719,-0.00021442,0.0094515,0.0013968,0,0,0.057896,-0.025131,0,0.0072634,0,0,0,0.03178,-0.00027542,0.0094515,2.4998,0.013652,0.028467,7.3557e-07,0.77,0.9,0
0.037149,-0.012058,0.031742,-0.00026631,0.0094427,0.0013578,0,0,0.057978,-0.025243,0,0.0070605,0,0,0,0.031799,-0.00032384,0.0094427,2.4247,0.013639,0.028523,7.3804e-07,0.78,0.9,0
0.037729,-0.012093,0.031763,-0.00030888,0.0094363,0.0013132,0,0,0.05805,-0.025337,0,0.0068287,0,0,0,0.031817,-0.0003626,0.0094363,2.3408,0.01363,0.02857,7.4018e-07,0.79,0.9,0
0.03831,-0.012123,0.031784,-0.00034321,0.0094321,0.001264,0,0,0.058114,-0.025416,0,0.0065728,0,0,0,0.031833,-0.00039291,0.0094321,2.2496,0.013624,0.028608,7.4203e-07,0.8,0.9,0
0.038891,-0.012149,0.031803,-0.00037035,0.0094298,0.0012109,0,0,0.058171,-0.02548,0,0.0062969,0,0,0,0.031849,-0.00041592,0.0094298,2.1524,0.013621,0.02864,7.4365e-07,0.81,0.9,0
0.039473,-0.012172,0.031822,-0.00039132,0.0094292,0.0011548,0,0,0.058221,-0.025533,0,0.0060049,0,0,0,0.031864,-0.00043272,0.0094292,2.0504,0.01362,0.028667,7.4507e-07,0.82,0.9,0
0.040056,-0.012191,0.031841,-0.00040704,0.00943,0.0010961,0,0,0.058267,-0.025576,0,0.0056998,0,0,0,0.031878,-0.00044432,0.00943,1.9445,0.013621,0.028689,7.4633e-07,0.83,0.9,0
0.040639,-0.012207,0.031858,-0.00041838,0.009432,0.0010355,0,0,0.058309,-0.025611,0,0.0053845,0,0,0,0.031892,-0.00045163,0.009432,1.8356,0.013624,0.028707,7.4746e-07,0.84,0.9,0
0.041222,-0.012221,0.031876,-0.0004261,0.0094349,0.00097331,0,0,0.058346,-0.025639,0,0.0050612,0,0,0,0.031905,-0.00045546,0.0094349,1.7243,0.013628,0.028722,7.4849e-07,0.85,0.9,0
0.041806,-0.012233,0.031893,-0.00043088,0.0094385,0.00090998,0,0,0.058381,-0.02566,0,0.0047319,0,0,0,0.031918,-0.00045654,0.0094385,1.6113,0.013633,0.028735,7.4943e-07,0.86,0.9,0
0.042389,-0.012242,0.031909,-0.00043332,0.0094427,0.0008458,0,0,0.058412,-0.025678,0,0.0043982,0,0,0,0.031931,-0.00045549,0.0094427,1.497,0.013639,0.028745,7.5029e-07,0.87,0.9,0
0.042974,-0.01225,0.031924,-0.00043395,0.0094471,0.00078104,0,0,0.058441,-0.025691,0,0.0040614,0,0,0,0.031943,-0.00045286,0.0094471,1.3818,0.013646,0.028754,7.5109e-07,0.88,0.9,0
0.043558,-0.012257,0.031939,-0.00043321,0.0094518,0.0007159,0,0,0.058467,-0.025701,0,0.0037227,0,0,0,0.031955,-0.0004491,0.0094518,1.2662,0.013653,0.028762,7.5182e-07,0.89,0.9,0
0.044143,-0.012262,0.031953,-0.00043149,0.0094565,0.00065055,0,0,0.058491,-0.025709,0,0.0033829,0,0,0,0.031966,-0.00044462,0.0094565,1.1503,0.013659,0.028768,7.5249e-07,0.9,0.9,0
0.044728,-0.012267,0.031966,-0.00042911,0.0094611,0.00058511,0,0,0.058513,-0.025715,0,0.0030426,0,0,0,0.031977,-0.00043974,0.0094611,1.0344,0.013666,0.028773,7.5311e-07,0.91,0.9,0
0.045313,-0.01227,0.031978,-0.00042636,0.0094655,0.00051967,0,0,0.058533,-0.025719,0,0.0027023,0,0,0,0.031987,-0.00043476,0.0094655,0.9185,0.013672,0.028778,7.5367e-07,0.92,0.9,0
0.045899,-0.012273,0.031989,-0.00042346,0.0094696,0.00045431,0,0,0.05855,-0.025722,0,0.0023624,0,0,0,0.031995,-0.00042989,0.0094696,0.80284,0.013678,0.028782,7.5417e-07,0.93,0.9,0
0.046484,-0.012275,0.031998,-0.0004206,0.0094734,0.00038906,0,0,0.058565,-0.025724,0,0.0020231,0,0,0,0.032003,-0.00042534,0.0094734,0.68744,0.013684,0.028785,7.5461e-07,0.94,0.9,0
0.04707,-0.012277,0.032007,-0.00041795,0.0094766,0.00032394,0,0,0.058578,-0.025726,0,0.0016845,0,0,0,0.03201,-0.00042125,0.0094766,0.57231,0.013688,0.028788,7.5498e-07,0.95,0.9,0
0.047656,-0.012278,0.032014,-0.00041562,0.0094794,0.00025896,0,0,0.058589,-0.025727,0,0.0013466,0,0,0,0.032016,-0.00041775,0.0094794,0.45746,0.013692,0.02879,7.553e-07,0.96,0.9,0
0.048242,-0.012279,0.032019,-0.00041371,0.0094816,0.0001941,0,0,0.058597,-0.025728,0,0.0010093,0,0,0,0.03202,-0.00041494,0.0094816,0.34286,0.013696,0.028792,7.5554e-07,0.97,0.9,0
0.048828,-0.01228,0.032023,-0.0004123,0.0094832,0.00012934,0,0,0.058603,-0.025728,0,0.00067255,0,0,0,0.032023,-0.00041288,0.0094832,0.22845,0.013698,0.028793,7.5572e-07,0.98,0.9,0
0.049414,-0.01228,0.032025,-0.00041143,0.0094841,6.4095e-05,0,0,0.058607,-0.025728,0,0.00033329,0,0,0,0.032025,-0.00041162,0.0094841,0.11321,0.013699,0.028794,7.5582e-07,0.99,0.9,0
0.049707,-0.01228,0.032026,-0.00041114,0.0094844,3.1211e-05,0,0,0.058608,-0.025729,0,0.0001623,0,0,0,0.032026,-0.0004112,0.0094844,0.055127,0.0137,0.028794,7.5586e-07,1,0.9,0
0.00023761,-0.00020984,0.03194,0.013089,0.013509,-0.0080592,0,0,0.047922,-0.0010915,0,-0.041908,0,0,0,0.034919,0.010111,0.013509,-20.265,0.019513,0.023297,6.0331e-07,0,0.91,0
0.00047922,-0.00042198,0.032016,0.012485,0.01335,-0.0080506,0,0,0.048532,-0.0022506,0,-0.041863,0,0,0,0.034912,0.0095893,0.01335,-19.764,0.019284,0.02367,6.2371e-07,0.01,0.91,0
0.00097063,-0.00084961,0.032285,0.011273,0.013067,-0.0080035,0,0,0.049965,-0.0046659,0,-0.041618,0,0,0,0.034992,0.0085651,0.013067,-18.671,0.018875,0.024492,6.6974e-07,0.02,0.91,0
0.0014785,-0.0012813,0.032652,0.01004,0.012807,-0.0078602,0,0,0.051595,-0.0071961,0,-0.040873,0,0,0,0.035123,0.0075684,0.012807,-17.425,0.0185,0.025347,7.1765e-07,0.03,0.91,0
0.0020025,-0.0017115,0.03297,0.0088065,0.012533,-0.0075899,0,0,0.053137,-0.0096891,0,-0.039468,0,0,0,0.035165,0.006612,0.012533,-16.089,0.018103,0.026103,7.5751e-07,0.04,0.91,0
0.0025413,-0.0021348,0.033219,0.0076333,0.012256,-0.0072118,0,0,0.054504,-0.012018,0,-0.037502,0,0,0,0.03512,0.0057321,0.012256,-14.724,0.017703,0.026732,7.8756e-07,0.05,0.91,0
0.0030926,-0.0025465,0.033386,0.0065605,0.011984,-0.0067562,0,0,0.055645,-0.014101,0,-0.035132,0,0,0,0.035,0.0049469,0.011984,-13.382,0.01731,0.027227,8.0766e-07,0.06,0.91,0
0.0036542,-0.0029427,0.033471,0.005608,0.011724,-0.0062557,0,0,0.056543,-0.015901,0,-0.03253,0,0,0,0.034819,0.0042605,0.011724,-12.102,0.016934,0.027595,8.1881e-07,0.07,0.91,0
0.0042235,-0.003321,0.033482,0.0047798,0.011479,-0.0057395,0,0,0.057209,-0.017417,0,-0.029846,0,0,0,0.034594,0.003668,0.011479,-10.908,0.01658,0.027855,8.2262e-07,0.08,0.91,0
0.0047984,-0.0036794,0.033431,0.0040698,0.01125,-0.0052301,0,0,0.057671,-0.018669,0,-0.027196,0,0,0,0.034341,0.0031602,0.01125,-9.8104,0.01625,0.028026,8.2085e-07,0.09,0.91,0
0.0053769,-0.0040173,0.033334,0.0034667,0.01104,-0.0047428,0,0,0.057963,-0.019691,0,-0.024662,0,0,0,0.034073,0.0027268,0.01104,-8.8138,0.015947,0.028128,8.1513e-07,0.1,0.91,0
0.0059576,-0.004334,0.033202,0.0029578,0.010848,-0.0042868,0,0,0.058121,-0.020515,0,-0.022292,0,0,0,0.033802,0.0023579,0.010848,-7.9158,0.015669,0.028176,8.0681e-07,0.11,0.91,0
0.0065393,-0.0046299,0.03305,0.0025305,0.010674,-0.003867,0,0,0.058177,-0.021174,0,-0.020109,0,0,0,0.033536,0.0020448,0.010674,-7.1112,0.015418,0.028185,7.9691e-07,0.12,0.91,0
0.0071212,-0.004905,0.032886,0.0021734,0.010518,-0.0034847,0,0,0.058157,-0.021695,0,-0.01812,0,0,0,0.033279,0.0017802,0.010518,-6.3929,0.015192,0.028166,7.8621e-07,0.13,0.91,0
0.0077025,-0.0051598,0.032717,0.0018769,0.010378,-0.0031391,0,0,0.058081,-0.022103,0,-0.016323,0,0,0,0.033036,0.0015584,0.010378,-5.7528,0.014991,0.028125,7.7521e-07,0.14,0.91,0
0.0082828,-0.0053948,0.032549,0.0016331,0.010255,-0.002828,0,0,0.057966,-0.022416,0,-0.014706,0,0,0,0.032808,0.0013748,0.010255,-5.1827,0.014812,0.028067,7.6423e-07,0.15,0.91,0
0.0088618,-0.0056104,0.032386,0.0014355,0.010146,-0.0025484,0,0,0.057823,-0.022649,0,-0.013252,0,0,0,0.032596,0.0012256,0.010146,-4.6743,0.014656,0.027997,7.5347e-07,0.16,0.91,0
0.0094393,-0.0058072,0.032229,0.0012785,0.010052,-0.0022968,0,0,0.05766,-0.022812,0,-0.011943,0,0,0,0.0324,0.0011078,0.010052,-4.2195,0.01452,0.027916,7.4301e-07,0.17,0.91,0
0.010015,-0.0059853,0.03208,0.0011576,0.0099713,-0.0020694,0,0,0.057482,-0.022915,0,-0.010761,0,0,0,0.032219,0.0010188,0.0099713,-3.8099,0.014403,0.027826,7.3289e-07,0.18,0.91,0
0.010589,-0.0061451,0.031939,0.0010687,0.0099022,-0.0018621,0,0,0.057295,-0.022967,0,-0.0096828,0,0,0,0.032051,0.00095599,0.0099022,-3.4376,0.014303,0.027727,7.231e-07,0.19,0.91,0
0.011161,-0.0062867,0.031806,0.0010074,0.009844,-0.0016708,0,0,0.057101,-0.022975,0,-0.0086882,0,0,0,0.031897,0.00091634,0.009844,-3.0943,0.014219,0.027621,7.1365e-07,0.2,0.91,0
0.011731,-0.0064101,0.031681,0.00096868,0.009795,-0.0014914,0,0,0.056904,-0.022948,0,-0.0077552,0,0,0,0.031754,0.0008958,0.009795,-2.7716,0.014148,0.02751,7.0457e-07,0.21,0.91,0
0.012299,-0.006515,0.031566,0.00094599,0.0097534,-0.0013196,0,0,0.056711,-0.022899,0,-0.0068622,0,0,0,0.031623,0.00088865,0.0097534,-2.4614,0.014088,0.027399,6.96e-07,0.22,0.91,0
0.012865,-0.0066013,0.03146,0.00093052,0.0097172,-0.0011516,0,0,0.056532,-0.022845,0,-0.0059885,0,0,0,0.031504,0.00088659,0.0097172,-2.1554,0.014036,0.027295,6.8819e-07,0.23,0.91,0
0.01343,-0.0066683,0.031369,0.00091011,0.0096837,-0.00098374,0,0,0.056382,-0.022811,0,-0.0051154,0,0,0,0.031401,0.00087783,0.0096837,-1.8464,0.013988,0.027211,6.8165e-07,0.24,0.91,0
0.013993,-0.0067156,0.0313,0.00086791,0.0096504,-0.00081328,0,0,0.056289,-0.022834,0,-0.0042291,0,0,0,0.031322,0.00084566,0.0096504,-1.5289,0.013939,0.027166,6.7731e-07,0.25,0.91,0
0.014555,-0.0067423,0.03127,0.00077804,0.0096145,-0.00064179,0,0,0.056305,-0.022975,0,-0.0033373,0,0,0,0.031284,0.00076402,0.0096145,-1.2057,0.013888,0.027197,6.769e-07,0.26,0.91,0
0.015119,-0.0067481,0.0313,0.00059943,0.0095697,-0.00048404,0,0,0.056498,-0.023323,0,-0.002517,0,0,0,0.031308,0.0005913,0.0095697,-0.90564,0.013823,0.027356,6.8286e-07,0.27,0.91,0
0.015685,-0.0067334,0.031398,0.00029492,0.0095079,-0.00037779,0,0,0.056914,-0.023954,0,-0.0019645,0,0,0,0.031403,0.00028979,0.0095079,-0.70067,0.013734,0.027681,6.97e-07,0.28,0.91,0
0.016257,-0.0067001,0.031561,-0.00010036,0.0094382,-0.00033681,0,0,0.05752,-0.0248,0,-0.0017514,0,0,0,0.031566,-0.00010519,0.0094382,-0.61927,0.013633,0.028141,7.1848e-07,0.29,0.91,0
0.016836,-0.0066465,0.032117,-0.00068857,0.0094285,-0.00044484,0,0,0.057607,-0.025623,0,-0.0022179,0,0,0,0.032126,-0.00069728,0.0094285,-0.77587,0.013619,0.029113,7.9268e-07,0.3,0.91,0
0.017413,-0.0065789,0.033127,-0.0014062,0.0095163,-0.00057896,0,0,0.054934,-0.025276,0,-0.0028878,0,0,0,0.033145,-0.0014236,0.0095163,-0.97328,0.013746,0.030603,9.3413e-07,0.31,0.91,0
0.017948,-0.0065349,0.033425,-0.0016639,0.0095285,-0.00034287,0,0,0.047999,-0.022424,0,-0.0021133,0,0,0,0.03345,-0.0016887,0.0095285,-0.6051,0.013763,0.031088,1.0004e-06,0.32,0.91,0
0.018388,-0.0065517,0.032884,-0.0013878,0.009449,0.00020274,0,0,0.039554,-0.018315,0,-0.00017078,0,0,0,0.032912,-0.0014158,0.009449,0.24516,0.013649,0.03039,9.3954e-07,0.33,0.91,0
0.018742,-0.0066183,0.033099,-0.00085995,0.0096716,0.00063648,0,0,0.033827,-0.015259,0,0.0013486,0,0,0,0.033126,-0.0008875,0.0096716,0.96299,0.01397,0.030155,8.9506e-07,0.34,0.91,0
0.019061,-0.0067028,0.034029,-0.00018081,0.010154,0.00078043,0,0,0.031662,-0.013731,0,0.0019488,0,0,0,0.034052,-0.00020347,0.010154,1.2637,0.014668,0.030429,9.1211e-07,0.35,0.91,0
0.019374,-0.0067946,0.034489,0.00016784,0.010397,0.00073561,0,0,0.03132,-0.013298,0,0.0019126,0,0,0,0.034506,0.00015085,0.010397,1.2261,0.015018,0.03055,9.2838e-07,0.36,0.91,0
0.019687,-0.0068923,0.034491,0.00014619,0.010391,0.00065295,0,0,0.03133,-0.013318,0,0.0016977,0,0,0,0.034504,0.00013319,0.010391,1.0886,0.015009,0.030561,9.2866e-07,0.37,0.91,0
0.02,-0.0069916,0.034407,0.00024927,0.010397,0.00058696,0,0,0.031213,-0.013192,0,0.0015261,0,0,0,0.034418,0.00023883,0.010397,0.98398,0.015018,0.0304,9.1863e-07,0.38,0.91,0
0.020311,-0.0070911,0.03431,0.00048233,0.010438,0.00048375,0,0,0.031034,-0.012942,0,0.0012578,0,0,0,0.034317,0.00047492,0.010438,0.81856,0.015077,0.030123,9.0365e-07,0.39,0.91,0
0.020621,-0.0071927,0.034233,0.00062612,0.010458,0.00033057,0,0,0.030908,-0.012781,0,0.00085948,0,0,0,0.034237,0.00062247,0.010458,0.56315,0.015106,0.029934,8.9295e-07,0.4,0.91,0
0.02093,-0.007297,0.034189,0.00069049,0.010464,0.00019167,0,0,0.030843,-0.012705,0,0.00049833,0,0,0,0.03419,0.00068917,0.010464,0.32762,0.015114,0.02984,8.8732e-07,0.41,0.91,0
0.021238,-0.0074038,0.034169,0.00076413,0.01048,8.0081e-05,0,0,0.030796,-0.012631,0,0.00020821,0,0,0,0.03417,0.00076377,0.01048,0.13714,0.015138,0.029762,8.8349e-07,0.42,0.91,0
0.021546,-0.0075128,0.034153,0.0008501,0.010501,-2.5264e-05,0,0,0.030747,-0.012546,0,-6.5687e-05,0,0,0,0.034153,0.00084989,0.010501,-0.043662,0.015168,0.029679,8.796e-07,0.43,0.91,0
0.021853,-0.007624,0.034128,0.00090736,0.010511,-0.00012973,0,0,0.030703,-0.012484,0,-0.00033731,0,0,0,0.034129,0.00090669,0.010511,-0.22385,0.015182,0.029613,8.7607e-07,0.44,0.91,0
0.02216,-0.0077374,0.034101,0.0009353,0.010511,-0.00022326,0,0,0.030667,-0.012448,0,-0.00058047,0,0,0,0.034102,0.00093368,0.010511,-0.38573,0.015182,0.029567,8.7319e-07,0.45,0.91,0
0.022466,-0.0078528,0.034074,0.00096103,0.01051,-0.00030638,0,0,0.030632,-0.012414,0,-0.0007966,0,0,0,0.034077,0.00095808,0.01051,-0.53013,0.015182,0.029525,8.7049e-07,0.46,0.91,0
0.022772,-0.00797,0.034048,0.00098386,0.01051,-0.00038974,0,0,0.0306,-0.012384,0,-0.0010133,0,0,0,0.034053,0.00097913,0.01051,-0.67524,0.015181,0.029487,8.6801e-07,0.47,0.91,0
0.023078,-0.0080891,0.03402,0.00097573,0.010499,-0.00047396,0,0,0.030577,-0.01238,0,-0.0012323,0,0,0,0.034026,0.00096882,0.010499,-0.82153,0.015165,0.029472,8.6626e-07,0.48,0.91,0
0.023384,-0.0082098,0.033985,0.00093667,0.010477,-0.00054946,0,0,0.030561,-0.012402,0,-0.0014286,0,0,0,0.033994,0.00092746,0.010477,-0.95216,0.015133,0.029476,8.6501e-07,0.49,0.91,0
0.023689,-0.0083319,0.033955,0.00090632,0.010458,-0.00062231,0,0,0.030546,-0.012418,0,-0.001618,0,0,0,0.033967,0.00089449,0.010458,-1.0783,0.015107,0.029478,8.6388e-07,0.5,0.91,0
0.023995,-0.0084555,0.033951,0.00088003,0.010449,-0.00071413,0,0,0.030552,-0.01244,0,-0.0018567,0,0,0,0.033967,0.00086442,0.010449,-1.2362,0.015094,0.029502,8.6477e-07,0.51,0.91,0
0.0243,-0.0085806,0.033982,0.00076915,0.010425,-0.00081285,0,0,0.030624,-0.012553,0,-0.0021134,0,0,0,0.034002,0.00074906,0.010425,-1.4008,0.015059,0.029625,8.7087e-07,0.52,0.91,0
0.024607,-0.0087065,0.034036,0.00056394,0.01038,-0.00085644,0,0,0.030753,-0.012761,0,-0.0022268,0,0,0,0.034058,0.00054186,0.01038,-1.4649,0.014993,0.02984,8.8132e-07,0.53,0.91,0
0.024915,-0.0088312,0.03408,0.0004788,0.010368,-0.00085908,0,0,0.030826,-0.012855,0,-0.0022336,0,0,0,0.034102,0.00045648,0.010368,-1.4634,0.014975,0.029947,8.8728e-07,0.54,0.91,0
0.025224,-0.0089561,0.034043,0.00050549,0.010365,-0.00087483,0,0,0.030782,-0.012817,0,-0.0022746,0,0,0,0.034067,0.00048163,0.010365,-1.492,0.014971,0.029895,8.838e-07,0.55,0.91,0
0.025531,-0.0090853,0.033556,0.00015524,0.010114,-0.00085134,0,0,0.03109,-0.013232,0,-0.0021318,0,0,0,0.033583,0.00012839,0.010114,-1.4151,0.014608,0.029748,8.6585e-07,0.56,0.91,0
0.025844,-0.00922,0.03261,-0.00053203,0.0096234,-0.00064346,0,0,0.033191,-0.014721,0,-0.0013506,0,0,0,0.032639,-0.00056134,0.0096234,-0.99649,0.0139,0.029461,8.4797e-07,0.57,0.91,0
0.026191,-0.0093706,0.032376,-0.0010695,0.0093919,-0.0001559,0,0,0.038793,-0.01769,0,0.00035817,0,0,0,0.032405,-0.0010987,0.0093919,-0.16796,0.013566,0.029684,8.8911e-07,0.58,0.91,0
0.026623,-0.0095678,0.032895,-0.0013515,0.009463,0.00043315,0,0,0.047068,-0.021675,0,0.0025102,0,0,0,0.032923,-0.0013797,0.009463,0.77577,0.013669,0.03037,9.4629e-07,0.59,0.91,0
0.027147,-0.0098221,0.03259,-0.0011247,0.0094395,0.00070683,0,0,0.053864,-0.024452,0,0.0035128,0,0,0,0.032612,-0.0011474,0.0094395,1.2206,0.013635,0.029907,8.8331e-07,0.6,0.91,0
0.027713,-0.010098,0.031582,-0.00046584,0.0093348,0.00060526,0,0,0.056488,-0.024823,0,0.0030435,0,0,0,0.031596,-0.00047986,0.0093348,1.0845,0.013484,0.028468,7.4914e-07,0.61,0.91,0
0.028281,-0.010358,0.031021,6.6942e-05,0.0093265,0.00052046,0,0,0.056407,-0.024075,0,0.0027064,0,0,0,0.031032,5.678e-05,0.0093265,0.9738,0.013472,0.027536,6.7883e-07,0.62,0.91,0
0.028841,-0.010598,0.030847,0.00040862,0.0093766,0.00057436,0,0,0.055822,-0.023317,0,0.0029867,0,0,0,0.030858,0.00039712,0.0093766,1.0861,0.013544,0.027111,6.5867e-07,0.63,0.91,0
0.029397,-0.010819,0.030734,0.00065013,0.0094151,0.00068254,0,0,0.055428,-0.022789,0,0.0035492,0,0,0,0.03075,0.00063413,0.0094151,1.3018,0.0136,0.026826,6.4572e-07,0.64,0.91,0
0.02995,-0.011021,0.030686,0.00075687,0.0094329,0.00082866,0,0,0.055258,-0.022558,0,0.004309,0,0,0,0.030709,0.00073353,0.0094329,1.5853,0.013625,0.026711,6.4068e-07,0.65,0.91,0
0.030502,-0.011202,0.030693,0.00076465,0.0094374,0.00097326,0,0,0.055265,-0.022549,0,0.0050609,0,0,0,0.030725,0.00073272,0.0094374,1.86,0.013632,0.026725,6.4165e-07,0.66,0.91,0
0.031055,-0.011365,0.030734,0.00071319,0.0094341,0.0010995,0,0,0.055379,-0.022674,0,0.0057175,0,0,0,0.030774,0.00067275,0.0094341,2.0937,0.013627,0.026817,6.4618e-07,0.67,0.91,0
0.03161,-0.011511,0.03079,0.00062743,0.0094253,0.0012036,0,0,0.055549,-0.022874,0,0.0062589,0,0,0,0.030838,0.00057932,0.0094253,2.2804,0.013614,0.026948,6.5249e-07,0.68,0.91,0
0.032166,-0.011641,0.030853,0.0005234,0.0094129,0.001286,0,0,0.055744,-0.023113,0,0.006687,0,0,0,0.030907,0.00046888,0.0094129,2.4224,0.013596,0.027097,6.5955e-07,0.69,0.91,0
0.032725,-0.011757,0.030917,0.0004124,0.0093989,0.0013478,0,0,0.055948,-0.023365,0,0.0070087,0,0,0,0.030977,0.00035291,0.0093989,2.5241,0.013576,0.027251,6.6678e-07,0.7,0.91,0
0.033285,-0.01186,0.030981,0.00030213,0.0093848,0.001391,0,0,0.056149,-0.023615,0,0.0072332,0,0,0,0.031044,0.00023915,0.0093848,2.59,0.013556,0.027401,6.7382e-07,0.71,0.91,0
0.033848,-0.011951,0.031041,0.00019752,0.0093717,0.0014174,0,0,0.056341,-0.023853,0,0.0073706,0,0,0,0.031106,0.0001325,0.0093717,2.625,0.013537,0.027542,6.8046e-07,0.72,0.91,0
0.034412,-0.012031,0.031099,0.00010149,0.0093603,0.0014291,0,0,0.056522,-0.024073,0,0.0074311,0,0,0,0.031165,3.5733e-05,0.0093603,2.6335,0.01352,0.027672,6.866e-07,0.73,0.91,0
0.034978,-0.012102,0.031154,1.5546e-05,0.0093509,0.0014278,0,0,0.056688,-0.024272,0,0.0074245,0,0,0,0.031219,-4.9803e-05,0.0093509,2.6194,0.013507,0.027788,6.9219e-07,0.74,0.91,0
0.035546,-0.012164,0.031205,-5.9795e-05,0.0093437,0.0014153,0,0,0.056841,-0.024449,0,0.0073596,0,0,0,0.031269,-0.00012375,0.0093437,2.5863,0.013496,0.027892,6.9726e-07,0.75,0.91,0
0.036115,-0.012219,0.031254,-0.00012465,0.0093388,0.0013932,0,0,0.05698,-0.024605,0,0.0072446,0,0,0,0.031316,-0.00018641,0.0093388,2.537,0.013489,0.027983,7.0182e-07,0.76,0.91,0
0.036685,-0.012267,0.0313,-0.00017954,0.0093361,0.0013629,0,0,0.057106,-0.024741,0,0.007087,0,0,0,0.031359,-0.00023846,0.0093361,2.4742,0.013486,0.028063,7.0593e-07,0.77,0.91,0
0.037257,-0.012308,0.031344,-0.00022523,0.0093355,0.0013256,0,0,0.057221,-0.024858,0,0.0068931,0,0,0,0.031399,-0.00028084,0.0093355,2.4,0.013485,0.028133,7.0963e-07,0.78,0.91,0
0.03783,-0.012344,0.031385,-0.00026264,0.0093368,0.0012825,0,0,0.057326,-0.024959,0,0.0066689,0,0,0,0.031437,-0.00031457,0.0093368,2.3165,0.013487,0.028194,7.1298e-07,0.79,0.91,0
0.038404,-0.012375,0.031425,-0.0002927,0.0093398,0.0012345,0,0,0.057422,-0.025044,0,0.0064195,0,0,0,0.031473,-0.00034073,0.0093398,2.2254,0.013491,0.028247,7.1602e-07,0.8,0.91,0
0.038978,-0.012402,0.031463,-0.00031636,0.0093441,0.0011826,0,0,0.05751,-0.025117,0,0.0061495,0,0,0,0.031507,-0.00036036,0.0093441,2.128,0.013497,0.028293,7.188e-07,0.81,0.91,0
0.039554,-0.012425,0.0315,-0.00033453,0.0093497,0.0011275,0,0,0.057591,-0.025179,0,0.0058627,0,0,0,0.03154,-0.00037447,0.0093497,2.0256,0.013505,0.028333,7.2134e-07,0.82,0.91,0
0.04013,-0.012445,0.031535,-0.00034803,0.0093562,0.0010698,0,0,0.057666,-0.025231,0,0.0055628,0,0,0,0.031571,-0.00038395,0.0093562,1.9194,0.013514,0.028368,7.2368e-07,0.83,0.91,0
0.040707,-0.012462,0.031569,-0.00035765,0.0093634,0.0010101,0,0,0.057734,-0.025275,0,0.0052525,0,0,0,0.031601,-0.00038964,0.0093634,1.8101,0.013525,0.028399,7.2585e-07,0.84,0.91,0
0.041285,-0.012476,0.031601,-0.00036407,0.0093711,0.00094891,0,0,0.057798,-0.025312,0,0.0049343,0,0,0,0.031629,-0.00039229,0.0093711,1.6987,0.013536,0.028427,7.2786e-07,0.85,0.91,0
0.041863,-0.012488,0.031632,-0.00036791,0.0093792,0.00088663,0,0,0.057857,-0.025343,0,0.0046105,0,0,0,0.031657,-0.00039253,0.0093792,1.5857,0.013548,0.028451,7.2972e-07,0.86,0.91,0
0.042442,-0.012497,0.031661,-0.0003697,0.0093874,0.00082358,0,0,0.057912,-0.025368,0,0.0042826,0,0,0,0.031682,-0.00039093,0.0093874,1.4718,0.01356,0.028473,7.3145e-07,0.87,0.91,0
0.043021,-0.012506,0.031689,-0.0003699,0.0093956,0.00076003,0,0,0.057962,-0.02539,0,0.0039521,0,0,0,0.031707,-0.00038798,0.0093956,1.3572,0.013571,0.028492,7.3305e-07,0.88,0.91,0
0.043601,-0.012512,0.031714,-0.00036893,0.0094036,0.00069619,0,0,0.058008,-0.025409,0,0.0036202,0,0,0,0.031729,-0.0003841,0.0094036,1.2424,0.013583,0.028509,7.3453e-07,0.89,0.91,0
0.044182,-0.012518,0.031738,-0.00036712,0.0094113,0.00063224,0,0,0.05805,-0.025424,0,0.0032877,0,0,0,0.031751,-0.00037963,0.0094113,1.1276,0.013594,0.028524,7.3588e-07,0.9,0.91,0
0.044762,-0.012522,0.03176,-0.00036476,0.0094186,0.00056831,0,0,0.058088,-0.025437,0,0.0029552,0,0,0,0.03177,-0.00037488,0.0094186,1.0131,0.013605,0.028538,7.3712e-07,0.91,0.91,0
0.045343,-0.012526,0.03178,-0.0003621,0.0094254,0.00050447,0,0,0.058122,-0.025447,0,0.0026233,0,0,0,0.031788,-0.00037008,0.0094254,0.89888,0.013614,0.02855,7.3823e-07,0.92,0.91,0
0.045925,-0.012529,0.031798,-0.00035934,0.0094315,0.0004408,0,0,0.058152,-0.025456,0,0.0022921,0,0,0,0.031804,-0.00036544,0.0094315,0.78512,0.013623,0.02856,7.3922e-07,0.93,0.91,0
0.046506,-0.012531,0.031813,-0.00035665,0.009437,0.00037732,0,0,0.058179,-0.025464,0,0.001962,0,0,0,0.031818,-0.00036114,0.009437,0.67182,0.013631,0.028569,7.4009e-07,0.94,0.91,0
0.047088,-0.012533,0.031827,-0.00035416,0.0094418,0.00031404,0,0,0.058201,-0.025469,0,0.001633,0,0,0,0.03183,-0.00035729,0.0094418,0.559,0.013638,0.028577,7.4083e-07,0.95,0.91,0
0.04767,-0.012534,0.031838,-0.00035199,0.0094457,0.00025096,0,0,0.058219,-0.025474,0,0.001305,0,0,0,0.03184,-0.00035401,0.0094457,0.44661,0.013644,0.028583,7.4143e-07,0.96,0.91,0
0.048253,-0.012535,0.031846,-0.00035022,0.0094488,0.00018805,0,0,0.058234,-0.025478,0,0.00097788,0,0,0,0.031848,-0.00035138,0.0094488,0.33461,0.013648,0.028588,7.4191e-07,0.97,0.91,0
0.048835,-0.012536,0.031853,-0.00034891,0.0094511,0.00012529,0,0,0.058244,-0.02548,0,0.00065149,0,0,0,0.031853,-0.00034945,0.0094511,0.2229,0.013652,0.028591,7.4225e-07,0.98,0.91,0
0.049417,-0.012536,0.031856,-0.0003481,0.0094524,6.2051e-05,0,0,0.05825,-0.025481,0,0.00032266,0,0,0,0.031856,-0.00034829,0.0094524,0.11039,0.013654,0.028593,7.4245e-07,0.99,0.91,0
0.049709,-0.012536,0.031857,-0.00034783,0.0094529,3.0168e-05,0,0,0.058252,-0.025482,0,0.00015687,0,0,0,0.031858,-0.00034789,0.0094529,0.053665,0.013654,0.028594,7.4252e-07,1,0.91,0
0.00024094,-0.00022123,0.032384,0.013218,0.01368,-0.0084924,0,0,0.048629,-0.0012033,0,-0.044161,0,0,0,0.035608,0.0099933,0.01368,-20.774,0.019761,0.023987,6.5307e-07,0,0.92,0
0.00048629,-0.00044552,0.032464,0.012542,0.013502,-0.0084796,0,0,0.049302,-0.002496,0,-0.044094,0,0,0,0.03559,0.0094155,0.013502,-20.22,0.019502,0.024393,6.7577e-07,0.01,0.92,0
0.00098604,-0.00089854,0.032746,0.011176,0.013177,-0.0084134,0,0,0.05088,-0.0052013,0,-0.04375,0,0,0,0.035647,0.0082748,0.013177,-19.005,0.019033,0.025284,7.2658e-07,0.02,0.92,0
0.0015039,-0.0013568,0.033122,0.0097838,0.012872,-0.0082205,0,0,0.052651,-0.0080287,0,-0.042746,0,0,0,0.035736,0.0071694,0.012872,-17.608,0.018592,0.026189,7.7738e-07,0.03,0.92,0
0.0020391,-0.0018131,0.033427,0.0084132,0.012552,-0.0078679,0,0,0.054274,-0.010761,0,-0.040913,0,0,0,0.035706,0.0061336,0.012552,-16.111,0.018131,0.026946,8.1593e-07,0.04,0.92,0
0.0025894,-0.0022604,0.033634,0.0071428,0.012233,-0.0073905,0,0,0.055643,-0.013235,0,-0.038431,0,0,0,0.035567,0.0052098,0.012233,-14.6,0.01767,0.027528,8.408e-07,0.05,0.92,0
0.0031519,-0.0026932,0.033735,0.0060163,0.011926,-0.006835,0,0,0.056706,-0.015364,0,-0.035542,0,0,0,0.035339,0.0044125,0.011926,-13.141,0.017226,0.02794,8.5293e-07,0.06,0.92,0
0.0037235,-0.0031075,0.033736,0.0050472,0.011635,-0.0062459,0,0,0.057463,-0.017128,0,-0.032479,0,0,0,0.035046,0.0037373,0.011635,-11.776,0.016806,0.028203,8.546e-07,0.07,0.92,0
0.0043012,-0.0035005,0.033653,0.0042295,0.011365,-0.0056584,0,0,0.05795,-0.018552,0,-0.029424,0,0,0,0.034712,0.0031709,0.011365,-10.527,0.016416,0.028347,8.4854e-07,0.08,0.92,0
0.0048825,-0.003871,0.033506,0.0035473,0.011116,-0.0050964,0,0,0.058214,-0.019678,0,-0.026501,0,0,0,0.034356,0.0026974,0.011116,-9.3996,0.016056,0.028401,8.3728e-07,0.09,0.92,0
0.0054655,-0.0042185,0.033315,0.0029818,0.010889,-0.0045735,0,0,0.058307,-0.020559,0,-0.023782,0,0,0,0.033995,0.0023017,0.010889,-8.3929,0.015728,0.028391,8.2287e-07,0.1,0.92,0
0.0060486,-0.0045429,0.033097,0.0025147,0.010683,-0.0040962,0,0,0.058274,-0.021239,0,-0.0213,0,0,0,0.03364,0.001971,0.010683,-7.4991,0.015432,0.028336,8.0686e-07,0.11,0.92,0
0.0066309,-0.0048446,0.032865,0.0021297,0.010498,-0.0036661,0,0,0.058153,-0.021759,0,-0.019064,0,0,0,0.0333,0.0016948,0.010498,-6.7084,0.015164,0.028252,7.903e-07,0.12,0.92,0
0.0072117,-0.0051243,0.032631,0.0018135,0.010333,-0.0032816,0,0,0.057973,-0.022151,0,-0.017064,0,0,0,0.032979,0.0014649,0.010333,-6.0102,0.014926,0.028148,7.7386e-07,0.13,0.92,0
0.0077904,-0.0053827,0.0324,0.0015549,0.010186,-0.0029394,0,0,0.057754,-0.022442,0,-0.015285,0,0,0,0.03268,0.0012749,0.010186,-5.3936,0.014714,0.028032,7.5797e-07,0.14,0.92,0
0.0083668,-0.0056203,0.032177,0.0013454,0.010057,-0.0026354,0,0,0.057512,-0.022649,0,-0.013704,0,0,0,0.032402,0.0011198,0.010057,-4.8484,0.014526,0.027909,7.4283e-07,0.15,0.92,0
0.0089406,-0.0058378,0.031964,0.001178,0.0099427,-0.0023649,0,0,0.057256,-0.022788,0,-0.012298,0,0,0,0.032146,0.00099579,0.0099427,-4.3647,0.014362,0.02778,7.2851e-07,0.16,0.92,0
0.0095119,-0.0060357,0.031764,0.001047,0.0098433,-0.0021234,0,0,0.056994,-0.02287,0,-0.011042,0,0,0,0.031911,0.00089968,0.0098433,-3.9333,0.014218,0.027647,7.1502e-07,0.17,0.92,0
0.010081,-0.0062145,0.031576,0.00094805,0.0097571,-0.0019063,0,0,0.056728,-0.022904,0,-0.0099126,0,0,0,0.031695,0.0008288,0.0097571,-3.5452,0.014094,0.027511,7.0228e-07,0.18,0.92,0
0.010646,-0.0063745,0.031399,0.00087676,0.0096828,-0.0017089,0,0,0.056463,-0.022896,0,-0.0088865,0,0,0,0.031496,0.00078049,0.0096828,-3.192,0.013986,0.027372,6.9025e-07,0.19,0.92,0
0.01121,-0.006516,0.031234,0.00082893,0.0096189,-0.0015272,0,0,0.0562,-0.022854,0,-0.0079415,0,0,0,0.031311,0.00075164,0.0096189,-2.8656,0.013894,0.027231,6.7885e-07,0.2,0.92,0
0.01177,-0.0066388,0.03108,0.00079966,0.0095638,-0.0013571,0,0,0.055941,-0.022787,0,-0.0070568,0,0,0,0.031141,0.00073827,0.0095638,-2.5584,0.013814,0.02709,6.6808e-07,0.21,0.92,0
0.012329,-0.0067431,0.030935,0.00078274,0.0095155,-0.001195,0,0,0.055692,-0.022705,0,-0.0062141,0,0,0,0.030983,0.00073482,0.0095155,-2.2634,0.013745,0.026953,6.5802e-07,0.22,0.92,0
0.012884,-0.0068287,0.030803,0.00076992,0.0094718,-0.0010382,0,0,0.055461,-0.022625,0,-0.0053988,0,0,0,0.030839,0.0007335,0.0094718,-1.9751,0.013682,0.026826,6.4885e-07,0.23,0.92,0
0.013438,-0.0068953,0.030684,0.00074997,0.0094303,-0.00088526,0,0,0.05526,-0.022569,0,-0.0046033,0,0,0,0.030711,0.00072329,0.0094303,-1.6903,0.013622,0.02672,6.4099e-07,0.24,0.92,0
0.01399,-0.0069427,0.030585,0.00070716,0.0093877,-0.00073742,0,0,0.055114,-0.022569,0,-0.0038346,0,0,0,0.030604,0.00068852,0.0093877,-1.4113,0.01356,0.026653,6.3512e-07,0.25,0.92,0
0.01454,-0.0069708,0.030512,0.00061966,0.0093396,-0.00060194,0,0,0.055049,-0.022672,0,-0.0031301,0,0,0,0.030525,0.00060721,0.0093396,-1.1523,0.013491,0.026647,6.3214e-07,0.26,0.92,0
0.01509,-0.0069797,0.030467,0.00046228,0.0092789,-0.00049585,0,0,0.05509,-0.022923,0,-0.0025784,0,0,0,0.030476,0.00045392,0.0092789,-0.94662,0.013403,0.026725,6.3278e-07,0.27,0.92,0
0.015642,-0.0069702,0.030436,0.00021869,0.0091964,-0.00044131,0,0,0.055223,-0.023342,0,-0.0022948,0,0,0,0.030443,0.0002122,0.0091964,-0.83702,0.013284,0.026889,6.3647e-07,0.28,0.92,0
0.016195,-0.0069434,0.030417,-9.2679e-05,0.0090972,-0.00044979,0,0,0.055431,-0.023894,0,-0.0023389,0,0,0,0.030424,-9.9371e-05,0.0090972,-0.84462,0.01314,0.027121,6.4251e-07,0.29,0.92,0
0.01675,-0.0068994,0.03044,-0.00054608,0.0089683,-0.0005381,0,0,0.055828,-0.024737,0,-0.0027981,0,0,0,0.03045,-0.00055575,0.0089683,-0.9925,0.012954,0.02751,6.5468e-07,0.3,0.92,0
0.017311,-0.0068404,0.030852,-0.0012103,0.0088926,-0.00075019,0,0,0.055807,-0.025643,0,-0.0038937,0,0,0,0.030872,-0.0012306,0.0088926,-1.352,0.012845,0.028428,7.1186e-07,0.31,0.92,0
0.017871,-0.0067815,0.031783,-0.0017097,0.0090221,-0.00094785,0,0,0.053035,-0.024967,0,-0.0049001,0,0,0,0.031822,-0.0017484,0.0090221,-1.6967,0.013032,0.029689,8.3094e-07,0.32,0.92,0
0.018387,-0.006755,0.03218,-0.0017569,0.009127,-0.00078251,0,0,0.046262,-0.021821,0,-0.0042375,0,0,0,0.032231,-0.0018077,0.009127,-1.4742,0.013183,0.0301,8.9983e-07,0.33,0.92,0
0.018813,-0.0067789,0.032188,-0.0013129,0.0092625,-0.00028091,0,0,0.038527,-0.017886,0,-0.002167,0,0,0,0.032235,-0.0013599,0.0092625,-0.70226,0.013379,0.029746,8.8687e-07,0.34,0.92,0
0.019164,-0.0068413,0.032777,-0.00047978,0.009689,0.00024866,0,0,0.033863,-0.015105,0,-7.34e-05,0,0,0,0.032812,-0.00051537,0.009689,0.2167,0.013995,0.029583,8.8037e-07,0.35,0.92,0
0.019488,-0.0069275,0.033447,2.5688e-05,0.010042,0.00063461,0,0,0.032238,-0.013863,0,0.0014159,0,0,0,0.033473,3.0366e-07,0.010042,0.97456,0.014505,0.029754,8.8747e-07,0.36,0.92,0
0.019804,-0.0070255,0.033974,9.8917e-05,0.010222,0.00076557,0,0,0.031483,-0.01341,0,0.0019621,0,0,0,0.033993,7.9672e-05,0.010222,1.268,0.014765,0.03015,9.0061e-07,0.37,0.92,0
0.020116,-0.007123,0.03423,0.00036143,0.010377,0.00070153,0,0,0.031008,-0.013021,0,0.001824,0,0,0,0.034245,0.00034631,0.010377,1.1859,0.01499,0.030162,9.0197e-07,0.38,0.92,0
0.020425,-0.0072196,0.034175,0.00070894,0.010465,0.0005278,0,0,0.030822,-0.012683,0,0.0013723,0,0,0,0.034184,0.00069968,0.010465,0.90178,0.015116,0.029826,8.8654e-07,0.39,0.92,0
0.020732,-0.0073196,0.03414,0.00078455,0.010478,0.00032191,0,0,0.030762,-0.012601,0,0.00083696,0,0,0,0.034144,0.00078082,0.010478,0.5528,0.015134,0.029726,8.8101e-07,0.4,0.92,0
0.02104,-0.0074235,0.034144,0.000759,0.010471,0.00019363,0,0,0.030775,-0.012626,0,0.00050343,0,0,0,0.034146,0.00075772,0.010471,0.33218,0.015125,0.029745,8.8178e-07,0.41,0.92,0
0.021348,-0.0075296,0.034162,0.00085583,0.010505,0.00010764,0,0,0.030753,-0.012544,0,0.00027987,0,0,0,0.034162,0.00085533,0.010505,0.18487,0.015174,0.029683,8.8017e-07,0.42,0.92,0
0.021655,-0.0076377,0.034156,0.00098179,0.010541,-1.8105e-06,0,0,0.030699,-0.012427,0,-4.7072e-06,0,0,0,0.034156,0.00098153,0.010541,-0.003411,0.015226,0.029577,8.7593e-07,0.43,0.92,0
0.021962,-0.0077484,0.034134,0.0010168,0.010545,-0.0001196,0,0,0.030665,-0.012387,0,-0.00031095,0,0,0,0.034134,0.0010162,0.010545,-0.20693,0.015232,0.02953,8.7319e-07,0.44,0.92,0
0.022268,-0.0078615,0.03411,0.00099901,0.010533,-0.00020626,0,0,0.03065,-0.012394,0,-0.00053628,0,0,0,0.034111,0.00099764,0.010533,-0.35692,0.015214,0.029524,8.7195e-07,0.45,0.92,0
0.022575,-0.0079766,0.034082,0.0010201,0.010531,-0.00026877,0,0,0.030617,-0.012364,0,-0.00069881,0,0,0,0.034085,0.0010178,0.010531,-0.46583,0.015211,0.029485,8.693e-07,0.46,0.92,0
0.022881,-0.0080934,0.034052,0.0010787,0.010539,-0.00034608,0,0,0.030566,-0.012299,0,-0.0008998,0,0,0,0.034056,0.0010749,0.010539,-0.60136,0.015223,0.029414,8.6534e-07,0.47,0.92,0
0.023186,-0.0082125,0.03402,0.0010826,0.010531,-0.00044471,0,0,0.030536,-0.012283,0,-0.0011562,0,0,0,0.034026,0.0010764,0.010531,-0.77323,0.015211,0.029386,8.6304e-07,0.48,0.92,0
0.023491,-0.0083335,0.033974,0.00099454,0.01049,-0.00052566,0,0,0.030528,-0.012345,0,-0.0013667,0,0,0,0.033982,0.0009861,0.01049,-0.91281,0.015153,0.029419,8.6233e-07,0.49,0.92,0
0.023797,-0.0084556,0.033907,0.00093384,0.010452,-0.00057521,0,0,0.030491,-0.012374,0,-0.0014956,0,0,0,0.033917,0.00092367,0.010452,-0.99908,0.015097,0.02941,8.5915e-07,0.5,0.92,0
0.024101,-0.0085792,0.033855,0.00098935,0.010453,-0.00065943,0,0,0.030423,-0.012303,0,-0.0017145,0,0,0,0.033869,0.00097564,0.010453,-1.1489,0.015099,0.029327,8.54e-07,0.51,0.92,0
0.024405,-0.0087054,0.033844,0.00093817,0.010435,-0.00081317,0,0,0.030432,-0.012345,0,-0.0021142,0,0,0,0.033865,0.00091747,0.010435,-1.4134,0.015072,0.029369,8.554e-07,0.52,0.92,0
0.02471,-0.0088339,0.033857,0.00061495,0.010342,-0.00092921,0,0,0.03057,-0.012645,0,-0.0024159,0,0,0,0.033884,0.00058865,0.010342,-1.6,0.014938,0.029648,8.6662e-07,0.53,0.92,0
0.025016,-0.0089601,0.033567,0.00036823,0.01018,-0.00093231,0,0,0.030998,-0.012999,0,-0.0023987,0,0,0,0.033595,0.00034019,0.01018,-1.5788,0.014705,0.029589,8.6197e-07,0.54,0.92,0
0.025328,-0.0090845,0.033012,0.00029538,0.0099921,-0.00074007,0,0,0.031707,-0.013425,0,-0.0017003,0,0,0,0.033043,0.00026456,0.0099921,-1.1781,0.014433,0.02916,8.4627e-07,0.55,0.92,0
0.025647,-0.009219,0.032318,-0.00020902,0.0096328,-0.00029653,0,0,0.033273,-0.014625,0,-5.8586e-05,0,0,0,0.032356,-0.00024709,0.0096328,-0.30628,0.013914,0.028963,8.3714e-07,0.56,0.92,0
0.025991,-0.0093753,0.031714,-0.0010326,0.0092044,0.00028519,0,0,0.037828,-0.017321,0,0.0022015,0,0,0,0.031763,-0.0010818,0.0092044,0.72595,0.013295,0.029103,8.42e-07,0.57,0.92,0
0.026409,-0.0095672,0.03169,-0.0014706,0.0090659,0.00083244,0,0,0.045402,-0.021132,0,0.0044645,0,0,0,0.031746,-0.0015257,0.0090659,1.5965,0.013095,0.029441,8.5356e-07,0.58,0.92,0
0.026916,-0.0098063,0.031287,-0.0014367,0.0089552,0.001041,0,0,0.052036,-0.024182,0,0.0053578,0,0,0,0.031333,-0.0014821,0.0089552,1.9029,0.012935,0.029039,7.8763e-07,0.59,0.92,0
0.027465,-0.010075,0.030358,-0.00097513,0.0088147,0.00088508,0,0,0.054749,-0.02485,0,0.0045876,0,0,0,0.030385,-0.0010027,0.0088147,1.6326,0.012732,0.027811,6.7421e-07,0.6,0.92,0
0.028015,-0.010343,0.029941,-0.00035631,0.0088753,0.00070737,0,0,0.05477,-0.024002,0,0.0036783,0,0,0,0.029957,-0.00037304,0.0088753,1.3359,0.01282,0.026925,6.197e-07,0.61,0.92,0
0.02856,-0.010594,0.029906,5.5452e-05,0.0089885,0.00064375,0,0,0.054386,-0.023226,0,0.0033475,0,0,0,0.02992,4.1517e-05,0.0089885,1.2358,0.012983,0.026561,6.0809e-07,0.62,0.92,0
0.029103,-0.010829,0.029913,0.00032291,0.0090707,0.00065062,0,0,0.05419,-0.022744,0,0.0033832,0,0,0,0.029927,0.00030854,0.0090707,1.2601,0.013102,0.026354,6.0245e-07,0.63,0.92,0
0.029644,-0.011046,0.029929,0.0005157,0.0091333,0.00071006,0,0,0.054068,-0.022406,0,0.0036923,0,0,0,0.029946,0.00049842,0.0091333,1.3826,0.013193,0.026219,5.9916e-07,0.64,0.92,0
0.030184,-0.011245,0.029955,0.00061481,0.009171,0.00080864,0,0,0.054039,-0.022246,0,0.0042049,0,0,0,0.029978,0.0005923,0.009171,1.577,0.013247,0.026173,5.9883e-07,0.65,0.92,0
0.030725,-0.011426,0.030005,0.00063568,0.0091922,0.00092233,0,0,0.054113,-0.022247,0,0.0047961,0,0,0,0.030034,0.00060649,0.0091922,1.7958,0.013278,0.026212,6.0187e-07,0.66,0.92,0
0.031266,-0.011591,0.030075,0.00060253,0.0092032,0.0010322,0,0,0.054266,-0.022362,0,0.0053673,0,0,0,0.030111,0.00056619,0.0092032,2.0017,0.013294,0.026312,6.0744e-07,0.67,0.92,0
0.03181,-0.011738,0.030157,0.00053629,0.0092079,0.0011289,0,0,0.054467,-0.022546,0,0.0058701,0,0,0,0.0302,0.00049314,0.0092079,2.1777,0.0133,0.026449,6.1452e-07,0.68,0.92,0
0.032356,-0.011871,0.030244,0.00045185,0.0092088,0.0012089,0,0,0.054692,-0.022768,0,0.0062861,0,0,0,0.030293,0.00040273,0.0092088,2.3182,0.013302,0.026604,6.2233e-07,0.69,0.92,0
0.032904,-0.011989,0.030333,0.00035954,0.0092076,0.0012713,0,0,0.054925,-0.023005,0,0.006611,0,0,0,0.030386,0.0003056,0.0092076,2.4231,0.0133,0.026764,6.3033e-07,0.7,0.92,0
0.033454,-0.012094,0.03042,0.0002665,0.0092058,0.0013168,0,0,0.055156,-0.023242,0,0.0068473,0,0,0,0.030477,0.00020903,0.0092058,2.4946,0.013297,0.026922,6.3821e-07,0.71,0.92,0
0.034007,-0.012187,0.030504,0.00017741,0.0092044,0.0013463,0,0,0.055379,-0.02347,0,0.0070009,0,0,0,0.030564,0.0001177,0.0092044,2.5359,0.013295,0.027072,6.4576e-07,0.72,0.92,0
0.034562,-0.01227,0.030585,9.5144e-05,0.0092041,0.0013614,0,0,0.055591,-0.023683,0,0.007079,0,0,0,0.030646,3.4428e-05,0.0092041,2.5505,0.013295,0.027211,6.5288e-07,0.73,0.92,0
0.035119,-0.012343,0.030663,2.1247e-05,0.0092052,0.0013634,0,0,0.05579,-0.023878,0,0.0070899,0,0,0,0.030723,-3.9351e-05,0.0092052,2.542,0.013296,0.027339,6.5952e-07,0.74,0.92,0
0.035677,-0.012407,0.030737,-4.3644e-05,0.009208,0.0013541,0,0,0.055975,-0.024054,0,0.0070416,0,0,0,0.030797,-0.00010315,0.009208,2.5135,0.0133,0.027455,6.6569e-07,0.75,0.92,0
0.036238,-0.012463,0.030808,-9.952e-05,0.0092126,0.001335,0,0,0.056148,-0.024211,0,0.0069418,0,0,0,0.030866,-0.00015713,0.0092126,2.468,0.013307,0.02756,6.714e-07,0.76,0.92,0
0.0368,-0.012512,0.030876,-0.00014677,0.0092188,0.0013073,0,0,0.056309,-0.02435,0,0.0067979,0,0,0,0.030931,-0.00020182,0.0092188,2.4082,0.013316,0.027654,6.7667e-07,0.77,0.92,0
0.037364,-0.012555,0.030941,-0.00018604,0.0092266,0.0012724,0,0,0.056458,-0.024473,0,0.0066166,0,0,0,0.030993,-0.00023803,0.0092266,2.3365,0.013327,0.027738,6.8156e-07,0.78,0.92,0
0.03793,-0.012592,0.031004,-0.00021809,0.0092357,0.0012315,0,0,0.056597,-0.02458,0,0.0064039,0,0,0,0.031052,-0.00026666,0.0092357,2.2549,0.01334,0.027813,6.861e-07,0.79,0.92,0
0.038496,-0.012624,0.031064,-0.00024376,0.009246,0.0011856,0,0,0.056726,-0.024673,0,0.0061653,0,0,0,0.031109,-0.00028867,0.009246,2.1653,0.013355,0.027881,6.9032e-07,0.8,0.92,0
0.039064,-0.012652,0.031121,-0.00026385,0.0092572,0.0011357,0,0,0.056846,-0.024755,0,0.0059056,0,0,0,0.031162,-0.00030497,0.0092572,2.0693,0.013372,0.027942,6.9425e-07,0.81,0.92,0
0.039633,-0.012675,0.031176,-0.00027917,0.0092691,0.0010825,0,0,0.056959,-0.024826,0,0.0056289,0,0,0,0.031214,-0.00031646,0.0092691,1.9683,0.013389,0.027996,6.9792e-07,0.82,0.92,0
0.040203,-0.012695,0.031229,-0.00029046,0.0092815,0.0010267,0,0,0.057063,-0.024887,0,0.0053389,0,0,0,0.031262,-0.00032395,0.0092815,1.8634,0.013407,0.028046,7.0136e-07,0.83,0.92,0
0.040774,-0.012713,0.031279,-0.0002984,0.0092943,0.00096897,0,0,0.057161,-0.024941,0,0.0050387,0,0,0,0.031309,-0.00032818,0.0092943,1.7556,0.013425,0.028091,7.0457e-07,0.84,0.92,0
0.041347,-0.012727,0.031327,-0.00030358,0.009307,0.00090979,0,0,0.057252,-0.024988,0,0.0047309,0,0,0,0.031353,-0.00032981,0.009307,1.6459,0.013444,0.028131,7.0758e-07,0.85,0.92,0
0.041919,-0.012739,0.031372,-0.00030654,0.0093197,0.00084956,0,0,0.057337,-0.025028,0,0.0044177,0,0,0,0.031395,-0.00032939,0.0093197,1.5348,0.013462,0.028168,7.1039e-07,0.86,0.92,0
0.042493,-0.01275,0.031415,-0.00030776,0.0093322,0.00078865,0,0,0.057415,-0.025064,0,0.004101,0,0,0,0.031435,-0.00032744,0.0093322,1.423,0.01348,0.028202,7.1301e-07,0.87,0.92,0
0.043068,-0.012758,0.031455,-0.00030764,0.0093442,0.00072733,0,0,0.057488,-0.025095,0,0.0037821,0,0,0,0.031472,-0.00032437,0.0093442,1.3109,0.013497,0.028232,7.1545e-07,0.88,0.92,0
0.043643,-0.012765,0.031492,-0.00030653,0.0093557,0.00066582,0,0,0.057555,-0.025122,0,0.0034623,0,0,0,0.031506,-0.00032054,0.0093557,1.1988,0.013514,0.02826,7.1769e-07,0.89,0.92,0
0.044219,-0.012771,0.031526,-0.00030473,0.0093665,0.00060429,0,0,0.057616,-0.025145,0,0.0031423,0,0,0,0.031538,-0.00031627,0.0093665,1.087,0.013529,0.028285,7.1976e-07,0.9,0.92,0
0.044795,-0.012775,0.031558,-0.00030248,0.0093766,0.00054286,0,0,0.057671,-0.025166,0,0.0028229,0,0,0,0.031567,-0.00031179,0.0093766,0.97572,0.013544,0.028307,7.2163e-07,0.91,0.92,0
0.045372,-0.012779,0.031586,-0.0003,0.0093858,0.00048162,0,0,0.057721,-0.025183,0,0.0025044,0,0,0,0.031593,-0.00030734,0.0093858,0.86502,0.013557,0.028327,7.2332e-07,0.92,0.92,0
0.04595,-0.012782,0.031611,-0.00029745,0.0093941,0.00042062,0,0,0.057764,-0.025198,0,0.0021872,0,0,0,0.031617,-0.00030306,0.0093941,0.75498,0.013569,0.028344,7.2482e-07,0.93,0.92,0
0.046528,-0.012785,0.031633,-0.000295,0.0094014,0.00035988,0,0,0.057802,-0.025211,0,0.0018714,0,0,0,0.031637,-0.00029912,0.0094014,0.64561,0.01358,0.028359,7.2612e-07,0.94,0.92,0
0.047106,-0.012786,0.031652,-0.00029274,0.0094077,0.00029941,0,0,0.057835,-0.025221,0,0.0015569,0,0,0,0.031655,-0.00029561,0.0094077,0.53689,0.013589,0.028372,7.2723e-07,0.95,0.92,0
0.047684,-0.012788,0.031667,-0.00029078,0.0094129,0.00023919,0,0,0.057861,-0.02523,0,0.0012438,0,0,0,0.031669,-0.00029263,0.0094129,0.42875,0.013596,0.028382,7.2814e-07,0.96,0.92,0
0.048263,-0.012789,0.031679,-0.00028919,0.009417,0.00017919,0,0,0.057881,-0.025236,0,0.00093179,0,0,0,0.03168,-0.00029025,0.009417,0.3211,0.013602,0.02839,7.2885e-07,0.97,0.92,0
0.048842,-0.012789,0.031688,-0.00028801,0.0094199,0.00011936,0,0,0.057896,-0.025241,0,0.00062067,0,0,0,0.031688,-0.00028851,0.0094199,0.21384,0.013607,0.028396,7.2936e-07,0.98,0.92,0
0.049421,-0.01279,0.031693,-0.00028729,0.0094217,5.905e-05,0,0,0.057905,-0.025243,0,0.00030706,0,0,0,0.031693,-0.00028746,0.0094217,0.10578,0.013609,0.028399,7.2966e-07,0.99,0.92,0
0.04971,-0.01279,0.031695,-0.00028705,0.0094222,2.8617e-05,0,0,0.057908,-0.025244,0,0.00014881,0,0,0,0.031695,-0.0002871,0.0094222,0.051259,0.01361,0.0284,7.2977e-07,1,0.92,0
0.00024545,-0.00023391,0.032984,0.013388,0.013912,-0.0089717,0,0,0.049588,-0.0013605,0,-0.046653,0,0,0,0.036474,0.009898,0.013912,-21.242,0.020095,0.024817,7.1689e-07,0,0.93,0
0.00049588,-0.0004719,0.033068,0.012612,0.013704,-0.0089497,0,0,0.050347,-0.00284,0,-0.046538,0,0,0,0.036438,0.0092416,0.013704,-20.615,0.019794,0.025267,7.426e-07,0.01,0.93,0
0.0010069,-0.00095363,0.033362,0.011033,0.013318,-0.0088477,0,0,0.052112,-0.0059419,0,-0.046008,0,0,0,0.036453,0.0079419,0.013318,-19.232,0.019238,0.026243,7.9919e-07,0.02,0.93,0
0.0015381,-0.0014419,0.033738,0.0094316,0.012951,-0.0085748,0,0,0.054047,-0.0091506,0,-0.044589,0,0,0,0.036472,0.0066981,0.012951,-17.636,0.018707,0.027196,8.5218e-07,0.03,0.93,0
0.0020879,-0.0019267,0.034009,0.0078983,0.012572,-0.0081016,0,0,0.055735,-0.012152,0,-0.042128,0,0,0,0.036333,0.0055746,0.012572,-15.94,0.01816,0.027927,8.8648e-07,0.04,0.93,0
0.0026528,-0.0023995,0.034144,0.0065308,0.012203,-0.0074905,0,0,0.057049,-0.014747,0,-0.03895,0,0,0,0.036059,0.0046157,0.012203,-14.263,0.017626,0.028422,9.0198e-07,0.05,0.93,0
0.0032288,-0.0028538,0.034143,0.0053674,0.011853,-0.0068116,0,0,0.057954,-0.016863,0,-0.03542,0,0,0,0.035687,0.0038236,0.011853,-12.683,0.017121,0.028705,9.0177e-07,0.06,0.93,0
0.0038119,-0.0032853,0.034024,0.0044056,0.011529,-0.0061231,0,0,0.058486,-0.01852,0,-0.03184,0,0,0,0.035251,0.0031784,0.011529,-11.242,0.016653,0.02882,8.9023e-07,0.07,0.93,0
0.0043986,-0.003692,0.033815,0.0036223,0.011231,-0.0054638,0,0,0.058718,-0.019783,0,-0.028412,0,0,0,0.034783,0.0026545,0.011231,-9.9542,0.016223,0.028814,8.715e-07,0.08,0.93,0
0.0049863,-0.004073,0.033547,0.0029887,0.010961,-0.0048553,0,0,0.058725,-0.020727,0,-0.025248,0,0,0,0.034308,0.0022281,0.010961,-8.817,0.015832,0.028727,8.4891e-07,0.09,0.93,0
0.0055731,-0.0044284,0.033246,0.0024772,0.010717,-0.0043066,0,0,0.058575,-0.021423,0,-0.022394,0,0,0,0.033843,0.0018795,0.010717,-7.8197,0.01548,0.028589,8.248e-07,0.1,0.93,0
0.0061578,-0.0047588,0.03293,0.0020641,0.010498,-0.003819,0,0,0.058323,-0.021929,0,-0.019859,0,0,0,0.033401,0.0015935,0.010498,-6.9482,0.015164,0.028421,8.0068e-07,0.11,0.93,0
0.0067395,-0.005065,0.032614,0.0017302,0.010303,-0.0033894,0,0,0.058008,-0.02229,0,-0.017625,0,0,0,0.032986,0.0013585,0.010303,-6.1875,0.014883,0.028238,7.7745e-07,0.12,0.93,0
0.0073179,-0.005348,0.032307,0.0014605,0.01013,-0.0030126,0,0,0.057659,-0.022541,0,-0.015666,0,0,0,0.032602,0.0011658,0.01013,-5.5232,0.014633,0.02805,7.5557e-07,0.13,0.93,0
0.0078927,-0.0056086,0.032014,0.0012434,0.0099772,-0.0026826,0,0,0.057296,-0.022708,0,-0.01395,0,0,0,0.032249,0.0010087,0.0099772,-4.942,0.014412,0.02786,7.3524e-07,0.14,0.93,0
0.0084638,-0.0058478,0.031738,0.0010701,0.0098425,-0.0023931,0,0,0.056929,-0.022808,0,-0.012444,0,0,0,0.031926,0.00088237,0.0098425,-4.4316,0.014217,0.027674,7.1648e-07,0.15,0.93,0
0.0090313,-0.0060662,0.031481,0.00093358,0.0097243,-0.0021382,0,0,0.056567,-0.022856,0,-0.011119,0,0,0,0.031631,0.00078297,0.0097243,-3.9809,0.014046,0.027491,6.9922e-07,0.16,0.93,0
0.0095952,-0.0062646,0.031242,0.00082863,0.0096211,-0.0019121,0,0,0.056214,-0.02286,0,-0.0099427,0,0,0,0.031363,0.00070753,0.0096211,-3.5797,0.013897,0.027312,6.8331e-07,0.17,0.93,0
0.010156,-0.0064434,0.03102,0.00075085,0.0095312,-0.0017095,0,0,0.055871,-0.022829,0,-0.0088895,0,0,0,0.031117,0.00065347,0.0095312,-3.2186,0.013767,0.027137,6.6862e-07,0.18,0.93,0
0.010713,-0.006603,0.030814,0.00069633,0.0094532,-0.0015257,0,0,0.055539,-0.022768,0,-0.0079338,0,0,0,0.030892,0.00061827,0.0094532,-2.8891,0.013655,0.026965,6.55e-07,0.19,0.93,0
0.011266,-0.0067438,0.030623,0.00066117,0.0093854,-0.0013564,0,0,0.055219,-0.022683,0,-0.0070532,0,0,0,0.030686,0.00059905,0.0093854,-2.5833,0.013557,0.026796,6.4231e-07,0.2,0.93,0
0.011817,-0.0068658,0.030446,0.00064092,0.009326,-0.0011977,0,0,0.054912,-0.022581,0,-0.0062281,0,0,0,0.030495,0.00059213,0.009326,-2.2941,0.013471,0.026632,6.305e-07,0.21,0.93,0
0.012365,-0.0069691,0.030281,0.00063007,0.0092733,-0.0010468,0,0,0.05462,-0.022472,0,-0.0054433,0,0,0,0.030318,0.0005925,0.0092733,-2.0162,0.013395,0.026475,6.1957e-07,0.22,0.93,0
0.012909,-0.0070538,0.030128,0.00062139,0.0092249,-0.00090181,0,0,0.054349,-0.022369,0,-0.0046894,0,0,0,0.030156,0.00059325,0.0092249,-1.7459,0.013325,0.026331,6.0962e-07,0.23,0.93,0
0.013452,-0.0071197,0.029989,0.00060522,0.0091782,-0.00076291,0,0,0.054108,-0.02229,0,-0.0039671,0,0,0,0.030009,0.00058488,0.0091782,-1.4835,0.013257,0.026207,6.0087e-07,0.24,0.93,0
0.013992,-0.007167,0.029864,0.0005689,0.0091298,-0.00063329,0,0,0.053908,-0.022258,0,-0.0032931,0,0,0,0.029878,0.00055477,0.0091298,-1.2354,0.013187,0.026114,5.9367e-07,0.25,0.93,0
0.01453,-0.0071957,0.029753,0.00049727,0.009075,-0.00052075,0,0,0.053762,-0.022302,0,-0.0027079,0,0,0,0.029762,0.00048768,0.009075,-1.0174,0.013108,0.026064,5.8831e-07,0.26,0.93,0
0.015067,-0.0072066,0.029652,0.00037572,0.0090083,-0.00043743,0,0,0.053673,-0.022445,0,-0.0022746,0,0,0,0.029659,0.000369,0.0090083,-0.85402,0.013012,0.026067,5.8483e-07,0.27,0.93,0
0.015603,-0.0072003,0.029557,0.00019724,0.0089262,-0.00039591,0,0,0.05364,-0.022695,0,-0.0020587,0,0,0,0.029562,0.00019178,0.0089262,-0.77047,0.012893,0.026123,5.8307e-07,0.28,0.93,0
0.01614,-0.007178,0.029472,-5.0553e-05,0.0088264,-0.00040716,0,0,0.053679,-0.02308,0,-0.0021173,0,0,0,0.029478,-5.6298e-05,0.0088264,-0.7875,0.012749,0.026246,5.8346e-07,0.29,0.93,0
0.016677,-0.0071413,0.029385,-0.00042693,0.0086873,-0.0004959,0,0,0.053813,-0.023697,0,-0.0025787,0,0,0,0.029393,-0.0004356,0.0086873,-0.94907,0.012548,0.026474,5.8644e-07,0.3,0.93,0
0.017216,-0.0070935,0.029296,-0.00096739,0.0084985,-0.00072395,0,0,0.054073,-0.024611,0,-0.0037645,0,0,0,0.029315,-0.00098652,0.0084985,-1.3606,0.012276,0.026847,5.9323e-07,0.31,0.93,0
0.017758,-0.0070403,0.029573,-0.001503,0.008421,-0.0011106,0,0,0.053745,-0.025209,0,-0.005727,0,0,0,0.029618,-0.0015482,0.008421,-2.0519,0.012164,0.027569,6.3735e-07,0.32,0.93,0
0.018295,-0.0069944,0.030317,-0.0018333,0.0085451,-0.0014245,0,0,0.050666,-0.024114,0,-0.0071732,0,0,0,0.030395,-0.0019116,0.0085451,-2.6421,0.012343,0.028553,7.3261e-07,0.33,0.93,0
0.018786,-0.0069775,0.03089,-0.0015935,0.008789,-0.0013187,0,0,0.045012,-0.021299,0,-0.0066714,0,0,0,0.030983,-0.0016866,0.008789,-2.5923,0.012695,0.028899,8.0856e-07,0.34,0.93,0
0.019211,-0.0070039,0.031033,-0.00078132,0.0090755,-0.0007446,0,0,0.03989,-0.01824,0,-0.0043085,0,0,0,0.031111,-0.00085942,0.0090755,-1.6981,0.013109,0.028352,8.1373e-07,0.35,0.93,0
0.019589,-0.0070708,0.031202,-0.00030432,0.0092693,-3.6881e-05,0,0,0.03574,-0.015733,0,-0.0013807,0,0,0,0.031253,-0.00035586,0.0092693,-0.39988,0.013389,0.028068,7.8884e-07,0.36,0.93,0
0.019923,-0.00716,0.032039,-0.00018632,0.0095558,0.0003975,0,0,0.032272,-0.013979,0,0.0005271,0,0,0,0.032071,-0.00021856,0.0095558,0.48917,0.013803,0.028681,8.0017e-07,0.37,0.93,0
0.020231,-0.007252,0.033233,0.00029898,0.01006,0.00047832,0,0,0.030682,-0.012939,0,0.0011139,0,0,0,0.033251,0.00028103,0.01006,0.75648,0.014531,0.029331,8.3881e-07,0.38,0.93,0
0.020535,-0.0073448,0.033904,0.00080245,0.010412,0.00039603,0,0,0.030539,-0.012492,0,0.0010297,0,0,0,0.033911,0.00079467,0.010412,0.68149,0.015039,0.029508,8.6276e-07,0.39,0.93,0
0.020842,-0.0074447,0.034116,0.00085062,0.01049,0.00029625,0,0,0.030714,-0.012531,0,0.00077024,0,0,0,0.03412,0.00084703,0.01049,0.50983,0.015152,0.029651,8.7719e-07,0.4,0.93,0
0.02115,-0.0075495,0.034198,0.00081514,0.010504,0.00022044,0,0,0.030802,-0.012595,0,0.00057313,0,0,0,0.0342,0.0008134,0.010504,0.37773,0.015172,0.02975,8.8441e-07,0.41,0.93,0
0.021458,-0.0076547,0.034181,0.00097917,0.010548,0.00013847,0,0,0.030723,-0.01244,0,0.00036003,0,0,0,0.034182,0.00097839,0.010548,0.23826,0.015236,0.029603,8.7805e-07,0.42,0.93,0
0.021764,-0.0077613,0.034156,0.0011505,0.010592,4.5773e-06,0,0,0.030633,-0.012274,0,1.1901e-05,0,0,0,0.034156,0.0011501,0.010592,0.0074789,0.015299,0.029443,8.7084e-07,0.43,0.93,0
0.02207,-0.0078718,0.034163,0.0011387,0.01059,-0.00014028,0,0,0.030644,-0.012287,0,-0.00036472,0,0,0,0.034164,0.0011378,0.01059,-0.24302,0.015297,0.02946,8.7179e-07,0.44,0.93,0
0.022377,-0.0079853,0.034153,0.0010095,0.010549,-0.00020615,0,0,0.030686,-0.012401,0,-0.00053599,0,0,0,0.034155,0.0010081,0.010549,-0.35624,0.015237,0.029555,8.7502e-07,0.45,0.93,0
0.022684,-0.0081,0.034125,0.0010272,0.010546,-0.00021238,0,0,0.030653,-0.012374,0,-0.00055219,0,0,0,0.034127,0.0010257,0.010546,-0.3679,0.015233,0.029516,8.7233e-07,0.46,0.93,0
0.02299,-0.008216,0.034078,0.0011882,0.01058,-0.00027052,0,0,0.030548,-0.012209,0,-0.00070335,0,0,0,0.034081,0.0011856,0.01058,-0.47167,0.015282,0.029349,8.6398e-07,0.47,0.93,0
0.023295,-0.0083347,0.034016,0.0012275,0.010573,-0.00039772,0,0,0.030476,-0.012149,0,-0.0010341,0,0,0,0.034021,0.0012222,0.010573,-0.69448,0.015272,0.029266,8.5829e-07,0.48,0.93,0
0.0236,-0.0084567,0.033988,0.0010847,0.010522,-0.00050422,0,0,0.030506,-0.012268,0,-0.001311,0,0,0,0.033996,0.0010769,0.010522,-0.87728,0.015198,0.029359,8.607e-07,0.49,0.93,0
0.023905,-0.0085793,0.033954,0.00095153,0.010472,-0.00055181,0,0,0.030527,-0.012376,0,-0.0014347,0,0,0,0.033964,0.00094213,0.010472,-0.95726,0.015126,0.029437,8.6225e-07,0.5,0.93,0
0.02421,-0.0087015,0.033825,0.0010114,0.010451,-0.00058751,0,0,0.030386,-0.012271,0,-0.0015275,0,0,0,0.033837,0.00099998,0.010451,-1.025,0.015096,0.029278,8.5087e-07,0.51,0.93,0
0.024513,-0.0088275,0.033571,0.00097905,0.010365,-0.00064016,0,0,0.030168,-0.012202,0,-0.0016644,0,0,0,0.033587,0.00096327,0.010365,-1.121,0.014972,0.029086,8.3315e-07,0.52,0.93,0
0.024814,-0.0089594,0.032869,0.00049574,0.010009,-0.00066819,0,0,0.030265,-0.012612,0,-0.0016133,0,0,0,0.032894,0.00047044,0.010009,-1.104,0.014458,0.028863,8.0689e-07,0.53,0.93,0
0.025117,-0.0090907,0.031653,2.5726e-05,0.0095036,-0.00053047,0,0,0.03179,-0.013602,0,-0.00089577,0,0,0,0.031691,-1.1729e-05,0.0095036,-0.73514,0.013727,0.028177,7.669e-07,0.54,0.93,0
0.025446,-0.0092236,0.030792,-9.3221e-05,0.0092095,-4.3946e-05,0,0,0.035165,-0.015294,0,0.0011294,0,0,0,0.030845,-0.00014683,0.0092095,0.25997,0.013303,0.027538,7.5313e-07,0.55,0.93,0
0.025818,-0.0093768,0.030596,-0.00056108,0.0090104,0.00070913,0,0,0.039212,-0.017718,0,0.0041835,0,0,0,0.030674,-0.00063983,0.0090104,1.6662,0.013015,0.027787,7.7462e-07,0.56,0.93,0
0.026235,-0.0095678,0.030436,-0.0013509,0.0087257,0.0013263,0,0,0.044216,-0.020678,0,0.0067156,0,0,0,0.030532,-0.0014469,0.0087257,2.6612,0.012604,0.028305,7.6876e-07,0.57,0.93,0
0.026718,-0.0097994,0.02986,-0.0015894,0.0084812,0.001477,0,0,0.049751,-0.023404,0,0.007438,0,0,0,0.029945,-0.0016742,0.0084812,2.7983,0.012251,0.027961,6.9616e-07,0.58,0.93,0
0.027244,-0.010057,0.029117,-0.0012819,0.0083506,0.0012098,0,0,0.052766,-0.02447,0,0.0062395,0,0,0,0.02917,-0.0013349,0.0083506,2.2863,0.012062,0.026999,6.0521e-07,0.59,0.93,0
0.027777,-0.010321,0.028836,-0.00077571,0.0084181,0.00086651,0,0,0.053086,-0.023904,0,0.0045059,0,0,0,0.028863,-0.00080247,0.0084181,1.667,0.012159,0.026297,5.6296e-07,0.6,0.93,0
0.028306,-0.010578,0.028917,-0.00026677,0.0085951,0.00067356,0,0,0.052837,-0.023041,0,0.0035025,0,0,0,0.028933,-0.00028258,0.0085951,1.3187,0.012415,0.025942,5.5636e-07,0.61,0.93,0
0.028834,-0.010823,0.028996,7.682e-05,0.0087219,0.00061084,0,0,0.052713,-0.022477,0,0.0031764,0,0,0,0.029009,6.3844e-05,0.0087219,1.2076,0.012598,0.025733,5.5359e-07,0.62,0.93,0
0.02936,-0.011053,0.029072,0.00028947,0.0088084,0.00061675,0,0,0.052685,-0.022149,0,0.0032071,0,0,0,0.029085,0.00027617,0.0088084,1.2255,0.012723,0.025631,5.534e-07,0.63,0.93,0
0.029887,-0.011268,0.029155,0.00042822,0.0088749,0.00066584,0,0,0.052728,-0.021961,0,0.0034624,0,0,0,0.02917,0.00041264,0.0088749,1.3257,0.012819,0.025598,5.5532e-07,0.64,0.93,0
0.030415,-0.011466,0.02924,0.00050414,0.0089233,0.0007456,0,0,0.052824,-0.02189,0,0.0038771,0,0,0,0.02926,0.00048458,0.0089233,1.4837,0.012889,0.02562,5.5885e-07,0.65,0.93,0
0.030944,-0.011647,0.029331,0.00052352,0.0089564,0.00084168,0,0,0.052974,-0.021925,0,0.0043767,0,0,0,0.029356,0.00049868,0.0089564,1.6702,0.012937,0.025694,5.6406e-07,0.66,0.93,0
0.031474,-0.011813,0.02943,0.0005002,0.008979,0.00094009,0,0,0.053172,-0.022045,0,0.0048885,0,0,0,0.029461,0.00046941,0.008979,1.8571,0.01297,0.025811,5.7077e-07,0.67,0.93,0
0.032007,-0.011962,0.029535,0.00044861,0.0089951,0.0010311,0,0,0.053404,-0.022221,0,0.0053616,0,0,0,0.029572,0.00041186,0.0089951,2.0256,0.012993,0.025956,5.7854e-07,0.68,0.93,0
0.032543,-0.012097,0.029644,0.00038065,0.0090073,0.0011094,0,0,0.053655,-0.022429,0,0.0057686,0,0,0,0.029686,0.00033845,0.0090073,2.1659,0.013011,0.026115,5.8689e-07,0.69,0.93,0
0.03308,-0.012217,0.029753,0.00030514,0.0090174,0.0011726,0,0,0.053912,-0.022652,0,0.0060975,0,0,0,0.0298,0.00025835,0.0090174,2.2748,0.013025,0.02628,5.9544e-07,0.7,0.93,0
0.033621,-0.012324,0.029861,0.00022828,0.0090268,0.0012202,0,0,0.054169,-0.022876,0,0.0063451,0,0,0,0.029911,0.00017797,0.0090268,2.3523,0.013039,0.026444,6.0394e-07,0.71,0.93,0
0.034164,-0.01242,0.029967,0.00015422,0.0090363,0.0012527,0,0,0.054419,-0.023093,0,0.006514,0,0,0,0.030019,0.00010155,0.0090363,2.4003,0.013052,0.026601,6.122e-07,0.72,0.93,0
0.034709,-0.012505,0.03007,8.5563e-05,0.0090466,0.001271,0,0,0.05466,-0.023299,0,0.0066091,0,0,0,0.030124,3.1676e-05,0.0090466,2.4216,0.013067,0.026749,6.2013e-07,0.73,0.93,0
0.035257,-0.01258,0.03017,2.3774e-05,0.009058,0.0012764,0,0,0.05489,-0.023489,0,0.0066374,0,0,0,0.030224,-3.0275e-05,0.009058,2.419,0.013084,0.026888,6.2769e-07,0.74,0.93,0
0.035807,-0.012645,0.030266,-3.0516e-05,0.0090707,0.0012704,0,0,0.055108,-0.023663,0,0.0066061,0,0,0,0.03032,-8.3791e-05,0.0090707,2.3958,0.013102,0.027016,6.3485e-07,0.75,0.93,0
0.036359,-0.012703,0.03036,-7.7236e-05,0.0090847,0.0012544,0,0,0.055315,-0.023821,0,0.0065228,0,0,0,0.030411,-0.00012894,0.0090847,2.355,0.013122,0.027133,6.4162e-07,0.76,0.93,0
0.036913,-0.012754,0.03045,-0.00011668,0.0090999,0.0012297,0,0,0.05551,-0.023963,0,0.0063947,0,0,0,0.030499,-0.00016618,0.0090999,2.2993,0.013144,0.027241,6.4801e-07,0.77,0.93,0
0.037469,-0.012798,0.030537,-0.00014939,0.0091162,0.0011978,0,0,0.055693,-0.024091,0,0.0062286,0,0,0,0.030584,-0.00019617,0.0091162,2.2311,0.013168,0.02734,6.5404e-07,0.78,0.93,0
0.038027,-0.012836,0.030621,-0.00017599,0.0091334,0.0011597,0,0,0.055867,-0.024204,0,0.0060307,0,0,0,0.030664,-0.0002197,0.0091334,2.1529,0.013193,0.027431,6.5973e-07,0.79,0.93,0
0.038587,-0.012869,0.030701,-0.00019719,0.0091512,0.0011167,0,0,0.05603,-0.024306,0,0.0058066,0,0,0,0.030742,-0.0002376,0.0091512,2.0664,0.013218,0.027514,6.6511e-07,0.8,0.93,0
0.039148,-0.012897,0.030779,-0.0002137,0.0091695,0.0010695,0,0,0.056184,-0.024396,0,0.0055614,0,0,0,0.030816,-0.00025067,0.0091695,1.9734,0.013245,0.02759,6.702e-07,0.81,0.93,0
0.03971,-0.012922,0.030853,-0.0002262,0.0091881,0.0010191,0,0,0.056329,-0.024477,0,0.0052994,0,0,0,0.030887,-0.00025969,0.0091881,1.8755,0.013272,0.02766,6.7501e-07,0.82,0.93,0
0.040274,-0.012943,0.030924,-0.00023531,0.0092066,0.00096621,0,0,0.056465,-0.024549,0,0.0050243,0,0,0,0.030954,-0.00026535,0.0092066,1.7739,0.013298,0.027725,6.7955e-07,0.83,0.93,0
0.04084,-0.01296,0.030992,-0.00024162,0.009225,0.00091142,0,0,0.056593,-0.024613,0,0.0047394,0,0,0,0.031018,-0.0002683,0.009225,1.6696,0.013325,0.027784,6.8383e-07,0.84,0.93,0
0.041406,-0.012975,0.031056,-0.00024564,0.009243,0.00085525,0,0,0.056713,-0.024671,0,0.0044473,0,0,0,0.031079,-0.00026909,0.009243,1.5635,0.013351,0.027839,6.8785e-07,0.85,0.93,0
0.041974,-0.012988,0.031116,-0.00024782,0.0092605,0.00079814,0,0,0.056825,-0.024722,0,0.0041503,0,0,0,0.031137,-0.00026821,0.0092605,1.4564,0.013376,0.027889,6.9163e-07,0.86,0.93,0
0.042543,-0.012999,0.031173,-0.00024856,0.0092773,0.00074043,0,0,0.056929,-0.024767,0,0.0038502,0,0,0,0.031191,-0.00026609,0.0092773,1.3488,0.013401,0.027936,6.9516e-07,0.87,0.93,0
0.043112,-0.013008,0.031226,-0.00024821,0.0092933,0.00068241,0,0,0.057025,-0.024808,0,0.0035485,0,0,0,0.031241,-0.00026309,0.0092933,1.2412,0.013424,0.027978,6.9845e-07,0.88,0.93,0
0.043683,-0.013015,0.031275,-0.00024706,0.0093084,0.00062429,0,0,0.057113,-0.024844,0,0.0032463,0,0,0,0.031288,-0.0002595,0.0093084,1.1339,0.013445,0.028017,7.0148e-07,0.89,0.93,0
0.044255,-0.013021,0.03132,-0.00024535,0.0093225,0.00056624,0,0,0.057194,-0.024876,0,0.0029445,0,0,0,0.031331,-0.00025558,0.0093225,1.0271,0.013466,0.028052,7.0427e-07,0.9,0.93,0
0.044827,-0.013026,0.031361,-0.00024329,0.0093354,0.00050838,0,0,0.057267,-0.024905,0,0.0026436,0,0,0,0.03137,-0.00025154,0.0093354,0.92112,0.013484,0.028083,7.068e-07,0.91,0.93,0
0.0454,-0.01303,0.031398,-0.00024107,0.0093472,0.00045078,0,0,0.057333,-0.024929,0,0.002344,0,0,0,0.031405,-0.00024756,0.0093472,0.81592,0.013501,0.028111,7.0907e-07,0.92,0.93,0
0.045974,-0.013033,0.031431,-0.00023881,0.0093577,0.00039348,0,0,0.057391,-0.024951,0,0.0020461,0,0,0,0.031436,-0.00024377,0.0093577,0.71158,0.013517,0.028136,7.1109e-07,0.93,0.93,0
0.046548,-0.013035,0.03146,-0.00023665,0.0093669,0.00033652,0,0,0.057441,-0.024969,0,0.0017499,0,0,0,0.031463,-0.00024029,0.0093669,0.60809,0.01353,0.028157,7.1284e-07,0.94,0.93,0
0.047123,-0.013037,0.031484,-0.00023468,0.0093747,0.00027986,0,0,0.057483,-0.024984,0,0.0014553,0,0,0,0.031486,-0.00023721,0.0093747,0.50539,0.013541,0.028175,7.1433e-07,0.95,0.93,0
0.047698,-0.013039,0.031504,-0.00023297,0.0093812,0.0002235,0,0,0.057518,-0.024997,0,0.0011622,0,0,0,0.031505,-0.0002346,0.0093812,0.4034,0.013551,0.02819,7.1556e-07,0.96,0.93,0
0.048273,-0.01304,0.031519,-0.00023159,0.0093862,0.00016739,0,0,0.057545,-0.025006,0,0.00087045,0,0,0,0.03152,-0.00023252,0.0093862,0.30201,0.013558,0.028201,7.1651e-07,0.97,0.93,0
0.048848,-0.013041,0.03153,-0.00023057,0.0093899,0.00011148,0,0,0.057565,-0.025013,0,0.00057971,0,0,0,0.031531,-0.00023101,0.0093899,0.20107,0.013563,0.02821,7.1719e-07,0.98,0.93,0
0.049424,-0.013041,0.031537,-0.00022994,0.009392,5.5053e-05,0,0,0.057576,-0.025017,0,0.00028627,0,0,0,0.031537,-0.00023009,0.009392,0.099276,0.013566,0.028215,7.176e-07,0.99,0.93,0
0.049712,-0.013041,0.031539,-0.00022973,0.0093928,2.6537e-05,0,0,0.05758,-0.025019,0,0.00013799,0,0,0,0.031539,-0.00022978,0.0093928,0.047849,0.013567,0.028216,7.1774e-07,1,0.93,0
0.00025168,-0.00024844,0.033811,0.013615,0.014228,-0.0095148,0,0,0.050916,-0.0015933,0,-0.049477,0,0,0,0.037591,0.009834,0.014228,-21.653,0.020551,0.025845,8.022e-07,0,0.94,0
0.00050916,-0.00050232,0.033895,0.012688,0.013975,-0.0094728,0,0,0.051792,-0.0033451,0,-0.049259,0,0,0,0.03752,0.0090632,0.013975,-20.919,0.020186,0.026352,8.3174e-07,0.01,0.94,0
0.0010358,-0.0010174,0.034192,0.010804,0.013499,-0.0093027,0,0,0.053802,-0.0070056,0,-0.048374,0,0,0,0.037456,0.0075406,0.013499,-19.298,0.019498,0.027431,8.9478e-07,0.02,0.94,0
0.0015852,-0.0015398,0.034549,0.0089284,0.013043,-0.008898,0,0,0.055915,-0.010699,0,-0.046269,0,0,0,0.037355,0.0061224,0.013043,-17.435,0.01884,0.028416,9.4746e-07,0.03,0.94,0
0.0021541,-0.0020561,0.034746,0.0072139,0.012588,-0.0082475,0,0,0.057611,-0.013973,0,-0.042887,0,0,0,0.037048,0.0049122,0.012588,-15.497,0.018183,0.029071,9.717e-07,0.04,0.94,0
0.0027374,-0.0025553,0.034757,0.0057682,0.012158,-0.0074603,0,0,0.058759,-0.016612,0,-0.038794,0,0,0,0.036583,0.0039419,0.012158,-13.641,0.017561,0.029409,9.7086e-07,0.05,0.94,0
0.0033293,-0.0030305,0.034598,0.0046041,0.011761,-0.0066377,0,0,0.059376,-0.018607,0,-0.034516,0,0,0,0.036018,0.0031842,0.011761,-11.952,0.016987,0.029497,9.5209e-07,0.06,0.94,0
0.0039249,-0.0034779,0.034309,0.003687,0.011399,-0.0058482,0,0,0.059566,-0.02005,0,-0.030411,0,0,0,0.035402,0.0025942,0.011399,-10.46,0.016465,0.029412,9.227e-07,0.07,0.94,0
0.0045206,-0.0038962,0.033938,0.0029696,0.011072,-0.0051275,0,0,0.05945,-0.021067,0,-0.026663,0,0,0,0.034776,0.0021315,0.011072,-9.1636,0.015993,0.029219,8.8842e-07,0.08,0.94,0
0.0051139,-0.0042856,0.033525,0.0024084,0.01078,-0.0044886,0,0,0.059136,-0.021766,0,-0.023341,0,0,0,0.034168,0.0017648,0.01078,-8.0459,0.015571,0.028968,8.5303e-07,0.09,0.94,0
0.0057034,-0.0046469,0.033099,0.0019675,0.01052,-0.0039317,0,0,0.058705,-0.022236,0,-0.020445,0,0,0,0.033595,0.0014715,0.01052,-7.085,0.015195,0.02869,8.1873e-07,0.1,0.94,0
0.006288,-0.0049814,0.032679,0.0016196,0.010289,-0.0034504,0,0,0.058212,-0.022542,0,-0.017942,0,0,0,0.033063,0.0012352,0.010289,-6.2592,0.014863,0.028405,7.8664e-07,0.11,0.94,0
0.0068676,-0.0052904,0.032277,0.0013437,0.010086,-0.0030361,0,0,0.057695,-0.02273,0,-0.015788,0,0,0,0.032576,0.0010441,0.010086,-5.5482,0.014569,0.028124,7.5723e-07,0.12,0.94,0
0.0074419,-0.0055751,0.031899,0.0011247,0.0099071,-0.0026796,0,0,0.057179,-0.022834,0,-0.013934,0,0,0,0.032134,0.00088957,0.0099071,-4.9343,0.01431,0.027853,7.3059e-07,0.13,0.94,0
0.0080112,-0.0058368,0.031548,0.00095096,0.0097497,-0.0023723,0,0,0.056676,-0.022877,0,-0.012336,0,0,0,0.031734,0.00076535,0.0097497,-4.402,0.014083,0.027596,7.0659e-07,0.14,0.94,0
0.0085755,-0.0060764,0.031225,0.00081423,0.0096117,-0.002106,0,0,0.056194,-0.022874,0,-0.010951,0,0,0,0.031372,0.00066687,0.0096117,-3.9375,0.013884,0.027353,6.85e-07,0.15,0.94,0
0.0091351,-0.0062949,0.030928,0.0007082,0.009491,-0.0018735,0,0,0.055737,-0.022835,0,-0.0097424,0,0,0,0.031046,0.00059072,0.009491,-3.5291,0.013709,0.027123,6.6557e-07,0.16,0.94,0
0.0096902,-0.0064929,0.030657,0.00062809,0.0093855,-0.0016686,0,0,0.055306,-0.022769,0,-0.0086767,0,0,0,0.030751,0.00053421,0.0093855,-3.1659,0.013557,0.026906,6.4802e-07,0.17,0.94,0
0.010241,-0.0066711,0.030408,0.00057005,0.0092935,-0.0014855,0,0,0.054899,-0.022681,0,-0.0077244,0,0,0,0.030483,0.00049509,0.0092935,-2.8384,0.013424,0.026699,6.3209e-07,0.18,0.94,0
0.010788,-0.0068299,0.030181,0.00053073,0.0092134,-0.0013192,0,0,0.054515,-0.022575,0,-0.0068598,0,0,0,0.03024,0.00047114,0.0092134,-2.5381,0.013308,0.026502,6.1757e-07,0.19,0.94,0
0.011331,-0.0069696,0.029972,0.00050679,0.0091435,-0.0011655,0,0,0.054153,-0.022455,0,-0.0060607,0,0,0,0.030018,0.00045989,0.0091435,-2.2575,0.013207,0.026314,6.0428e-07,0.2,0.94,0
0.011871,-0.0070905,0.029779,0.0004945,0.009082,-0.0010209,0,0,0.053812,-0.022328,0,-0.0053089,0,0,0,0.029815,0.00045818,0.009082,-1.9903,0.013118,0.026135,5.9207e-07,0.21,0.94,0
0.012408,-0.0071926,0.029601,0.00048928,0.0090271,-0.00088297,0,0,0.053492,-0.022198,0,-0.0045914,0,0,0,0.029629,0.00046183,0.0090271,-1.7319,0.013039,0.025966,5.8089e-07,0.22,0.94,0
0.012941,-0.0072761,0.029437,0.00048524,0.0089767,-0.0007505,0,0,0.053197,-0.022078,0,-0.0039026,0,0,0,0.029457,0.00046518,0.0089767,-1.4804,0.012966,0.025811,5.7073e-07,0.23,0.94,0
0.013472,-0.0073411,0.029285,0.00047485,0.008928,-0.00062434,0,0,0.052929,-0.021978,0,-0.0032465,0,0,0,0.029299,0.00046077,0.008928,-1.2376,0.012896,0.025674,5.6166e-07,0.24,0.94,0
0.014,-0.0073879,0.029145,0.00044886,0.008878,-0.00050788,0,0,0.052693,-0.021916,0,-0.002641,0,0,0,0.029154,0.0004394,0.008878,-1.0106,0.012824,0.025562,5.5376e-07,0.25,0.94,0
0.014526,-0.0074168,0.029012,0.00039703,0.0088228,-0.00040752,0,0,0.052493,-0.021907,0,-0.0021191,0,0,0,0.029018,0.00039085,0.0088228,-0.81293,0.012744,0.02548,5.4708e-07,0.26,0.94,0
0.01505,-0.0074286,0.028885,0.00030974,0.0087584,-0.00033197,0,0,0.052329,-0.021966,0,-0.0017262,0,0,0,0.028889,0.0003056,0.0087584,-0.66273,0.012651,0.025433,5.4156e-07,0.27,0.94,0
0.015572,-0.0074241,0.028759,0.00017679,0.0086807,-0.00029147,0,0,0.052203,-0.02211,0,-0.0015156,0,0,0,0.028762,0.00017358,0.0086807,-0.58121,0.012539,0.025426,5.3718e-07,0.28,0.94,0
0.016094,-0.007405,0.028629,-2.084e-05,0.0085825,-0.00030023,0,0,0.052121,-0.022369,0,-0.0015612,0,0,0,0.028633,-2.4272e-05,0.0085825,-0.59674,0.012397,0.025469,5.3397e-07,0.29,0.94,0
0.016615,-0.0073733,0.028484,-0.00030728,0.0084531,-0.00038429,0,0,0.052081,-0.022777,0,-0.0019983,0,0,0,0.02849,-0.00031304,0.0084531,-0.75929,0.01221,0.025573,5.3178e-07,0.3,0.94,0
0.017135,-0.0073326,0.028292,-0.00069337,0.0082795,-0.00057736,0,0,0.052032,-0.023329,0,-0.0030023,0,0,0,0.028305,-0.00070651,0.0082795,-1.1323,0.011959,0.025724,5.2902e-07,0.31,0.94,0
0.017655,-0.0072874,0.02803,-0.0011505,0.008064,-0.00091023,0,0,0.051913,-0.023958,0,-0.0047332,0,0,0,0.028063,-0.0011831,0.008064,-1.7688,0.011648,0.025893,5.2463e-07,0.32,0.94,0
0.018173,-0.0072424,0.028038,-0.0015973,0.0079321,-0.0013749,0,0,0.051083,-0.024186,0,-0.0070521,0,0,0,0.02811,-0.0016698,0.0079321,-2.6518,0.011457,0.026327,5.4791e-07,0.33,0.94,0
0.018681,-0.00721,0.028353,-0.0016197,0.0080201,-0.0017122,0,0,0.049282,-0.023437,0,-0.0087498,0,0,0,0.028467,-0.0017332,0.0080201,-3.3674,0.011585,0.026698,5.9623e-07,0.34,0.94,0
0.019167,-0.0072081,0.028803,-0.00106,0.0083228,-0.0016396,0,0,0.046408,-0.021463,0,-0.0085202,0,0,0,0.02893,-0.0011877,0.0083228,-3.3764,0.012022,0.026673,6.3872e-07,0.35,0.94,0
0.019617,-0.0072423,0.029249,-0.00067605,0.0085719,-0.0012636,0,0,0.041195,-0.018471,0,-0.006627,0,0,0,0.029369,-0.00079616,0.0085719,-2.7687,0.012382,0.026745,6.7079e-07,0.36,0.94,0
0.020001,-0.0073043,0.029867,-0.00052092,0.0088037,-0.00082759,0,0,0.035115,-0.015548,0,-0.0042377,0,0,0,0.029964,-0.00061784,0.0088037,-1.9676,0.012716,0.027129,6.9871e-07,0.37,0.94,0
0.020325,-0.0073813,0.03125,6.699e-05,0.0093952,-0.00047008,0,0,0.031838,-0.013724,0,-0.002352,0,0,0,0.031313,4.4289e-06,0.0093952,-1.2217,0.013571,0.027832,7.5631e-07,0.38,0.94,0
0.020638,-0.0074694,0.032397,0.00066761,0.0099195,-0.00014809,0,0,0.031423,-0.01303,0,-0.0010269,0,0,0,0.032429,0.00063553,0.0099195,-0.52548,0.014328,0.02832,8.0669e-07,0.39,0.94,0
0.020952,-0.0075702,0.032915,0.00078865,0.010111,9.6624e-05,0,0,0.031328,-0.012803,0,-7.0747e-05,0,0,0,0.032928,0.00077546,0.010111,0.016438,0.014605,0.02865,8.2487e-07,0.4,0.94,0
0.021261,-0.0076754,0.033584,0.00084114,0.010328,0.00012446,0,0,0.030799,-0.012545,0,0.00024484,0,0,0,0.033589,0.00083674,0.010328,0.16865,0.014918,0.029188,8.4887e-07,0.41,0.94,0
0.021567,-0.0077784,0.034019,0.0010536,0.010522,4.2683e-05,0,0,0.030547,-0.012309,0,0.00011098,0,0,0,0.034021,0.0010522,0.010522,0.070438,0.015198,0.029401,8.6381e-07,0.42,0.94,0
0.021872,-0.0078832,0.034138,0.0012449,0.010615,-6.4122e-05,0,0,0.03058,-0.012181,0,-0.00016672,0,0,0,0.034139,0.001244,0.010615,-0.11183,0.015332,0.029353,8.6669e-07,0.43,0.94,0
0.022178,-0.0079941,0.034235,0.0012183,0.010636,-0.00015867,0,0,0.030679,-0.012243,0,-0.00041255,0,0,0,0.034237,0.0012171,0.010636,-0.27532,0.015363,0.029462,8.7508e-07,0.44,0.94,0
0.022486,-0.0081095,0.034281,0.0010098,0.010587,-0.00018308,0,0,0.030802,-0.012451,0,-0.000476,0,0,0,0.034282,0.0010079,0.010587,-0.31573,0.015292,0.029669,8.8501e-07,0.45,0.94,0
0.022794,-0.0082241,0.034251,0.0010259,0.010583,-0.00017631,0,0,0.030768,-0.012424,0,-0.00045842,0,0,0,0.034253,0.0010242,0.010583,-0.30384,0.015287,0.029629,8.8221e-07,0.46,0.94,0
0.023101,-0.0083376,0.034146,0.0012574,0.010621,-0.00019507,0,0,0.030583,-0.012173,0,-0.00050719,0,0,0,0.034148,0.0012558,0.010621,-0.34004,0.015342,0.029353,8.6707e-07,0.47,0.94,0
0.023406,-0.0084554,0.033992,0.0013002,0.010588,-0.00027436,0,0,0.030426,-0.012074,0,-0.00071333,0,0,0,0.033996,0.0012969,0.010588,-0.48087,0.015293,0.029184,8.5411e-07,0.48,0.94,0
0.02371,-0.0085788,0.033821,0.0011295,0.010485,-0.00035618,0,0,0.030337,-0.012162,0,-0.00092608,0,0,0,0.033827,0.0011239,0.010485,-0.62024,0.015145,0.029172,8.4686e-07,0.49,0.94,0
0.024013,-0.0087032,0.03334,0.00094308,0.010285,-0.0004046,0,0,0.030531,-0.012353,0,-0.00098389,0,0,0,0.033349,0.00093387,0.010285,-0.66426,0.014856,0.028898,8.2796e-07,0.5,0.94,0
0.024319,-0.0088246,0.032628,0.00091057,0.010061,-0.00033886,0,0,0.031,-0.012568,0,-0.00059288,0,0,0,0.032645,0.00089366,0.010061,-0.45266,0.014533,0.028304,8.0038e-07,0.51,0.94,0
0.02463,-0.0089495,0.032068,0.00079803,0.0098597,-5.6063e-05,0,0,0.031044,-0.012762,0,0.0004493,0,0,0,0.0321,0.00076579,0.0098597,0.15841,0.014242,0.027923,7.7873e-07,0.52,0.94,0
0.024938,-0.0090856,0.030891,0.00021319,0.0093312,0.00030871,0,0,0.031402,-0.013415,0,0.0018782,0,0,0,0.030951,0.00015347,0.0093312,0.94148,0.013478,0.027391,7.2689e-07,0.53,0.94,0
0.025258,-0.0092314,0.029489,-0.00035654,0.0087396,0.00071217,0,0,0.034584,-0.015169,0,0.0038629,0,0,0,0.029582,-0.0004498,0.0087396,1.7849,0.012624,0.026655,6.6901e-07,0.54,0.94,0
0.025635,-0.0093904,0.028851,-0.00050681,0.0085031,0.001191,0,0,0.040531,-0.018,0,0.0063518,0,0,0,0.028967,-0.0006237,0.0085031,2.6827,0.012282,0.026249,6.4035e-07,0.55,0.94,0
0.026079,-0.0095753,0.02839,-0.0008807,0.0082527,0.0016088,0,0,0.045629,-0.020897,0,0.0083866,0,0,0,0.028517,-0.0010077,0.0082527,3.3836,0.011921,0.02616,6.0842e-07,0.56,0.94,0
0.026556,-0.0097938,0.027935,-0.0014246,0.0079533,0.0017251,0,0,0.048432,-0.022804,0,0.0088179,0,0,0,0.028052,-0.0015414,0.0079533,3.462,0.011488,0.026175,5.6748e-07,0.57,0.94,0
0.027055,-0.01004,0.027618,-0.0014063,0.0078636,0.0014349,0,0,0.050191,-0.023529,0,0.0073642,0,0,0,0.027697,-0.0014851,0.0078636,2.8271,0.011358,0.025811,5.214e-07,0.58,0.94,0
0.027564,-0.010297,0.027607,-0.00097782,0.0079888,0.001017,0,0,0.051008,-0.023313,0,0.0052884,0,0,0,0.027647,-0.0010175,0.0079888,2.0199,0.011539,0.02539,4.9909e-07,0.59,0.94,0
0.028075,-0.010553,0.027863,-0.00054054,0.0081967,0.0007252,0,0,0.051132,-0.022717,0,0.003771,0,0,0,0.027883,-0.00056036,0.0081967,1.454,0.01184,0.025232,5.0322e-07,0.6,0.94,0
0.028587,-0.010804,0.028052,-0.00017715,0.0083624,0.00056635,0,0,0.051193,-0.022203,0,0.002945,0,0,0,0.028064,-0.00018899,0.0083624,1.1442,0.012079,0.025095,5.0597e-07,0.61,0.94,0
0.029099,-0.011044,0.028194,8.458e-05,0.0084837,0.00050897,0,0,0.051248,-0.021838,0,0.0026466,0,0,0,0.028204,7.5127e-05,0.0084837,1.0338,0.012254,0.025008,5.0836e-07,0.62,0.94,0
0.029612,-0.011272,0.028321,0.00025533,0.0085728,0.00051896,0,0,0.051344,-0.021625,0,0.0026986,0,0,0,0.02833,0.0002455,0.0085728,1.0563,0.012383,0.024985,5.1183e-07,0.63,0.94,0
0.030126,-0.011485,0.028441,0.00035817,0.0086398,0.00056956,0,0,0.051484,-0.021532,0,0.0029617,0,0,0,0.028453,0.00034636,0.0086398,1.1589,0.01248,0.025013,5.1644e-07,0.64,0.94,0
0.030641,-0.011683,0.02856,0.00041111,0.0086914,0.00064535,0,0,0.051659,-0.021529,0,0.0033558,0,0,0,0.028575,0.00039601,0.0086914,1.3102,0.012554,0.025082,5.2211e-07,0.65,0.94,0
0.031159,-0.011865,0.028679,0.0004236,0.0087309,0.00073459,0,0,0.051866,-0.021599,0,0.0038199,0,0,0,0.028699,0.00040418,0.0087309,1.4857,0.012611,0.025186,5.2875e-07,0.66,0.94,0
0.031679,-0.012031,0.028801,0.00040464,0.0087616,0.0008269,0,0,0.052102,-0.021728,0,0.0042999,0,0,0,0.028825,0.00038024,0.0087616,1.664,0.012656,0.025317,5.3627e-07,0.67,0.94,0
0.032201,-0.012183,0.028925,0.00036387,0.0087866,0.0009141,0,0,0.052359,-0.021899,0,0.0047533,0,0,0,0.028954,0.00033434,0.0087866,1.8287,0.012692,0.025468,5.445e-07,0.68,0.94,0
0.032726,-0.012319,0.029051,0.00030992,0.0088083,0.00099088,0,0,0.052631,-0.022096,0,0.0051526,0,0,0,0.029085,0.00027552,0.0088083,1.9698,0.012723,0.025632,5.5318e-07,0.69,0.94,0
0.033254,-0.012442,0.029178,0.00024962,0.0088283,0.0010543,0,0,0.052909,-0.022305,0,0.0054826,0,0,0,0.029217,0.000211,0.0088283,2.0823,0.012752,0.0258,5.6208e-07,0.7,0.94,0
0.033784,-0.012551,0.029305,0.00018797,0.0088478,0.0011034,0,0,0.053188,-0.022516,0,0.0057376,0,0,0,0.029347,0.000146,0.0088478,2.1649,0.01278,0.025967,5.7101e-07,0.71,0.94,0
0.034317,-0.012649,0.02943,0.0001284,0.0088676,0.001138,0,0,0.053463,-0.022722,0,0.0059175,0,0,0,0.029475,8.4072e-05,0.0088676,2.2187,0.012809,0.026131,5.7982e-07,0.72,0.94,0
0.034853,-0.012736,0.029554,7.3091e-05,0.0088882,0.0011589,0,0,0.053732,-0.022919,0,0.0060261,0,0,0,0.0296,2.7426e-05,0.0088882,2.2458,0.012838,0.026287,5.8844e-07,0.73,0.94,0
0.035392,-0.012813,0.029676,2.3297e-05,0.0089097,0.0011671,0,0,0.053991,-0.023105,0,0.0060692,0,0,0,0.029722,-2.2745e-05,0.0089097,2.2489,0.01287,0.026435,5.9679e-07,0.74,0.94,0
0.035933,-0.01288,0.029794,-2.0426e-05,0.0089322,0.0011641,0,0,0.054242,-0.023277,0,0.0060535,0,0,0,0.02984,-6.5978e-05,0.0089322,2.2311,0.012902,0.026575,6.0486e-07,0.75,0.94,0
0.036477,-0.012939,0.02991,-5.7994e-05,0.0089557,0.0011512,0,0,0.054482,-0.023436,0,0.0059863,0,0,0,0.029955,-0.00010232,0.0089557,2.1953,0.012936,0.026706,6.1262e-07,0.76,0.94,0
0.037023,-0.012991,0.030023,-8.9641e-05,0.00898,0.0011298,0,0,0.054712,-0.023581,0,0.0058748,0,0,0,0.030066,-0.00013213,0.00898,2.1444,0.012971,0.026829,6.2007e-07,0.77,0.94,0
0.037571,-0.013037,0.030133,-0.00011579,0.009005,0.0011011,0,0,0.054932,-0.023714,0,0.0057258,0,0,0,0.030173,-0.00015598,0.009005,2.0809,0.013007,0.026943,6.2722e-07,0.78,0.94,0
0.038121,-0.013076,0.030239,-0.00013698,0.0090305,0.0010664,0,0,0.055141,-0.023835,0,0.0055455,0,0,0,0.030276,-0.00017454,0.0090305,2.0072,0.013044,0.027049,6.3406e-07,0.79,0.94,0
0.038674,-0.01311,0.030341,-0.00015378,0.0090561,0.0010268,0,0,0.05534,-0.023946,0,0.0053395,0,0,0,0.030375,-0.00018848,0.0090561,1.9254,0.013081,0.027149,6.406e-07,0.8,0.94,0
0.039228,-0.01314,0.030439,-0.00016679,0.0090817,0.00098327,0,0,0.055529,-0.024046,0,0.005113,0,0,0,0.030471,-0.0001985,0.0090817,1.8374,0.013118,0.027242,6.4684e-07,0.81,0.94,0
0.039784,-0.013165,0.030533,-0.00017655,0.009107,0.0009366,0,0,0.055708,-0.024137,0,0.0048703,0,0,0,0.030562,-0.00020523,0.009107,1.7445,0.013155,0.027328,6.5279e-07,0.82,0.94,0
0.040342,-0.013186,0.030623,-0.00018358,0.0091319,0.00088755,0,0,0.055877,-0.02422,0,0.0046153,0,0,0,0.030649,-0.00020928,0.0091319,1.6482,0.013191,0.027409,6.5844e-07,0.83,0.94,0
0.040902,-0.013205,0.030709,-0.00018837,0.0091561,0.00083673,0,0,0.056037,-0.024296,0,0.004351,0,0,0,0.030732,-0.00021115,0.0091561,1.5495,0.013226,0.027484,6.638e-07,0.84,0.94,0
0.041463,-0.013221,0.03079,-0.00019133,0.0091795,0.00078466,0,0,0.056187,-0.024364,0,0.0040802,0,0,0,0.03081,-0.00021132,0.0091795,1.4493,0.013259,0.027553,6.6886e-07,0.85,0.94,0
0.042026,-0.013234,0.030866,-0.00019283,0.009202,0.00073177,0,0,0.056327,-0.024426,0,0.0038052,0,0,0,0.030883,-0.00021019,0.009202,1.3484,0.013292,0.027618,6.7362e-07,0.86,0.94,0
0.04259,-0.013245,0.030938,-0.0001932,0.0092233,0.00067839,0,0,0.056457,-0.024483,0,0.0035276,0,0,0,0.030952,-0.00020809,0.0092233,1.2473,0.013323,0.027677,6.7807e-07,0.87,0.94,0
0.043155,-0.013254,0.031004,-0.00019271,0.0092434,0.00062479,0,0,0.056578,-0.024534,0,0.0032489,0,0,0,0.031017,-0.00020532,0.0092434,1.1465,0.013352,0.027732,6.8222e-07,0.88,0.94,0
0.043721,-0.013262,0.031065,-0.0001916,0.0092622,0.00057119,0,0,0.056689,-0.02458,0,0.0029702,0,0,0,0.031076,-0.00020213,0.0092622,1.0462,0.013379,0.027783,6.8606e-07,0.89,0.94,0
0.044289,-0.013268,0.031122,-0.00019007,0.0092795,0.00051774,0,0,0.05679,-0.024621,0,0.0026923,0,0,0,0.031131,-0.00019871,0.0092795,0.94675,0.013404,0.027828,6.8958e-07,0.9,0.94,0
0.044857,-0.013274,0.031173,-0.00018828,0.0092954,0.00046455,0,0,0.056882,-0.024658,0,0.0024156,0,0,0,0.03118,-0.00019523,0.0092954,0.84821,0.013427,0.027869,6.9278e-07,0.91,0.94,0
0.045426,-0.013278,0.031219,-0.00018637,0.0093098,0.00041168,0,0,0.056964,-0.02469,0,0.0021407,0,0,0,0.031224,-0.00019184,0.0093098,0.75068,0.013447,0.027906,6.9565e-07,0.92,0.94,0
0.045996,-0.013281,0.03126,-0.00018446,0.0093225,0.00035917,0,0,0.057036,-0.024718,0,0.0018677,0,0,0,0.031264,-0.00018863,0.0093225,0.65417,0.013466,0.027939,6.9819e-07,0.93,0.94,0
0.046567,-0.013284,0.031295,-0.00018264,0.0093336,0.00030703,0,0,0.057099,-0.024742,0,0.0015965,0,0,0,0.031298,-0.00018569,0.0093336,0.55864,0.013482,0.027967,7.0041e-07,0.94,0.94,0
0.047138,-0.013286,0.031325,-0.00018099,0.0093431,0.00025524,0,0,0.057152,-0.024763,0,0.0013272,0,0,0,0.031327,-0.00018311,0.0093431,0.46401,0.013496,0.02799,7.0228e-07,0.95,0.94,0
0.04771,-0.013288,0.031349,-0.00017957,0.0093509,0.00020377,0,0,0.057196,-0.024779,0,0.0010596,0,0,0,0.031351,-0.00018093,0.0093509,0.37019,0.013507,0.02801,7.0382e-07,0.96,0.94,0
0.048282,-0.013289,0.031368,-0.00017841,0.0093569,0.00015257,0,0,0.057229,-0.024792,0,0.00079339,0,0,0,0.031369,-0.0001792,0.0093569,0.27704,0.013516,0.028025,7.0502e-07,0.97,0.94,0
0.048855,-0.01329,0.031382,-0.00017757,0.0093613,0.00010159,0,0,0.057253,-0.024801,0,0.00052829,0,0,0,0.031382,-0.00017794,0.0093613,0.1844,0.013522,0.028035,7.0588e-07,0.98,0.94,0
0.049427,-0.01329,0.03139,-0.00017705,0.0093639,5.003e-05,0,0,0.057268,-0.024806,0,0.00026016,0,0,0,0.03139,-0.00017717,0.0093639,0.090785,0.013526,0.028042,7.064e-07,0.99,0.94,0
0.049714,-0.01329,0.031393,-0.00017687,0.0093648,2.3912e-05,0,0,0.057273,-0.024808,0,0.00012434,0,0,0,0.031393,-0.00017692,0.0093648,0.043384,0.013527,0.028044,7.0657e-07,1,0.94,0
0.00026055,-0.00026577,0.034978,0.013911,0.014667,-0.01015,0,0,0.052808,-0.0019636,0,-0.052779,0,0,0,0.039078,0.0098109,0.014667,-21.979,0.021185,0.027171,9.2273e-07,0,0.95,0
0.00052808,-0.0005388,0.035051,0.012751,0.014341,-0.010064,0,0,0.053847,-0.0041334,0,-0.052331,0,0,0,0.038937,0.0088653,0.014341,-21.081,0.020714,0.02775,9.5665e-07,0.01,0.95,0
0.0010769,-0.0010937,0.035325,0.010414,0.013722,-0.0097594,0,0,0.056169,-0.0086007,0,-0.050749,0,0,0,0.038717,0.0070217,0.013722,-19.107,0.01982,0.02894,1.0249e-06,0.02,0.95,0
0.0016515,-0.0016558,0.035616,0.0081873,0.013141,-0.009133,0,0,0.058436,-0.01288,0,-0.047492,0,0,0,0.038409,0.0053948,0.013141,-16.887,0.018982,0.029908,1.0703e-06,0.03,0.95,0
0.0022457,-0.0022062,0.035665,0.0063026,0.01259,-0.0082253,0,0,0.059995,-0.016348,0,-0.042772,0,0,0,0.037842,0.0041256,0.01259,-14.669,0.018186,0.030385,1.0732e-06,0.04,0.95,0
0.0028514,-0.0027318,0.035463,0.0048363,0.01209,-0.00722,0,0,0.06077,-0.018859,0,-0.037544,0,0,0,0.037106,0.0031933,0.01209,-12.644,0.017463,0.030457,1.0448e-06,0.05,0.95,0
0.0034611,-0.0032259,0.035063,0.0037345,0.011639,-0.0062491,0,0,0.060902,-0.020553,0,-0.032495,0,0,0,0.036285,0.0025123,0.011639,-10.885,0.016812,0.030261,9.9916e-07,0.06,0.95,0
0.0040694,-0.0036863,0.034544,0.0029121,0.011237,-0.0053771,0,0,0.060598,-0.021644,0,-0.027961,0,0,0,0.03545,0.0020059,0.011237,-9.3909,0.016231,0.029917,9.47e-07,0.07,0.95,0
0.004673,-0.0041133,0.033972,0.0022958,0.01088,-0.004623,0,0,0.060039,-0.02232,0,-0.02404,0,0,0,0.034646,0.0016215,0.01088,-8.1335,0.015716,0.029506,8.9493e-07,0.08,0.95,0
0.0052702,-0.0045083,0.033394,0.0018298,0.010567,-0.0039829,0,0,0.05935,-0.022717,0,-0.020711,0,0,0,0.033899,0.0013246,0.010567,-7.0767,0.015264,0.029077,8.4623e-07,0.09,0.95,0
0.00586,-0.0048731,0.032836,0.0014736,0.010293,-0.003444,0,0,0.058612,-0.02293,0,-0.017909,0,0,0,0.033218,0.0010919,0.010293,-6.1867,0.014867,0.028656,8.0219e-07,0.1,0.95,0
0.0064424,-0.0052097,0.032312,0.0011987,0.010053,-0.0029913,0,0,0.057874,-0.023022,0,-0.015555,0,0,0,0.032604,0.00090761,0.010053,-5.4345,0.014522,0.028256,7.6307e-07,0.11,0.95,0
0.0070175,-0.0055196,0.03183,0.00098483,0.0098443,-0.0026104,0,0,0.057162,-0.023035,0,-0.013574,0,0,0,0.032054,0.0007607,0.0098443,-4.7957,0.01422,0.027884,7.2861e-07,0.12,0.95,0
0.0075856,-0.0058047,0.031389,0.00081761,0.0096618,-0.0022887,0,0,0.056489,-0.022995,0,-0.011901,0,0,0,0.031563,0.0006435,0.0096618,-4.2502,0.013956,0.027541,6.9835e-07,0.13,0.95,0
0.0081473,-0.0060661,0.030988,0.0006869,0.0095026,-0.0020153,0,0,0.055863,-0.022921,0,-0.01048,0,0,0,0.031125,0.00055054,0.0095026,-3.7811,0.013726,0.027225,6.7177e-07,0.14,0.95,0
0.0087029,-0.0063052,0.030626,0.00058544,0.0093635,-0.0017812,0,0,0.055283,-0.022823,0,-0.0092621,0,0,0,0.030734,0.00047789,0.0093635,-3.3745,0.013525,0.026936,6.4837e-07,0.15,0.95,0
0.0092529,-0.0065229,0.030299,0.00050793,0.0092421,-0.0015784,0,0,0.054748,-0.022709,0,-0.0082079,0,0,0,0.030384,0.00042269,0.0092421,-3.018,0.01335,0.026669,6.2768e-07,0.16,0.95,0
0.0097979,-0.0067199,0.030004,0.00045043,0.0091363,-0.0014005,0,0,0.054256,-0.022583,0,-0.0072825,0,0,0,0.030072,0.00038273,0.0091363,-2.701,0.013197,0.026423,6.0931e-07,0.17,0.95,0
0.010338,-0.006897,0.029737,0.00040986,0.009044,-0.0012416,0,0,0.053801,-0.022449,0,-0.0064562,0,0,0,0.02979,0.00035616,0.009044,-2.4143,0.013064,0.026194,5.9291e-07,0.18,0.95,0
0.010874,-0.0070545,0.029495,0.00038353,0.0089635,-0.0010969,0,0,0.053382,-0.022308,0,-0.0057038,0,0,0,0.029537,0.00034123,0.0089635,-2.1495,0.012947,0.025981,5.7819e-07,0.19,0.95,0
0.011406,-0.0071929,0.029276,0.00036882,0.0088933,-0.00096235,0,0,0.052994,-0.022164,0,-0.0050042,0,0,0,0.029308,0.00033595,0.0088933,-1.8998,0.012846,0.025782,5.6492e-07,0.2,0.95,0
0.011934,-0.0073123,0.029076,0.00036285,0.0088316,-0.00083477,0,0,0.052635,-0.022019,0,-0.0043408,0,0,0,0.029101,0.00033784,0.0088316,-1.6594,0.012757,0.025596,5.5292e-07,0.21,0.95,0
0.012458,-0.0074131,0.028894,0.0003621,0.0087768,-0.00071201,0,0,0.052305,-0.021878,0,-0.0037025,0,0,0,0.028912,0.00034367,0.0087768,-1.4245,0.012678,0.025424,5.4207e-07,0.22,0.95,0
0.01298,-0.0074953,0.028727,0.00036217,0.0087269,-0.00059327,0,0,0.052001,-0.021748,0,-0.003085,0,0,0,0.02874,0.00034917,0.0087269,-1.1938,0.012605,0.025266,5.3229e-07,0.23,0.95,0
0.013498,-0.0075593,0.028574,0.00035758,0.0086795,-0.00047944,0,0,0.051726,-0.021637,0,-0.0024931,0,0,0,0.028583,0.0003489,0.0086795,-0.96963,0.012537,0.025127,5.2354e-07,0.24,0.95,0
0.014014,-0.0076053,0.028431,0.00034186,0.008632,-0.00037347,0,0,0.051479,-0.021554,0,-0.001942,0,0,0,0.028437,0.00033643,0.008632,-0.75833,0.012468,0.025007,5.1578e-07,0.25,0.95,0
0.014528,-0.0076339,0.028296,0.00030784,0.0085812,-0.00028046,0,0,0.051259,-0.021511,0,-0.0014584,0,0,0,0.028299,0.00030463,0.0085812,-0.57098,0.012395,0.02491,5.0894e-07,0.26,0.95,0
0.01504,-0.0076459,0.028164,0.00024761,0.0085236,-0.00020761,0,0,0.051066,-0.021518,0,-0.0010796,0,0,0,0.028166,0.00024574,0.0085236,-0.42305,0.012312,0.024839,5.0293e-07,0.27,0.95,0
0.015549,-0.0076425,0.028031,0.00015124,0.0084548,-0.00016458,0,0,0.050899,-0.021589,0,-0.00085583,0,0,0,0.028033,0.00014996,0.0084548,-0.33506,0.012212,0.024796,4.9764e-07,0.28,0.95,0
0.016058,-0.0076253,0.027889,6.1819e-06,0.0083687,-0.00016521,0,0,0.050754,-0.021742,0,-0.00085909,0,0,0,0.027891,4.8394e-06,0.0083687,-0.33578,0.012088,0.024786,4.9289e-07,0.29,0.95,0
0.016564,-0.0075968,0.027725,-0.00019964,0.0082575,-0.00022821,0,0,0.050615,-0.021989,0,-0.0011867,0,0,0,0.027727,-0.00020216,0.0082575,-0.4633,0.011928,0.024806,4.8815e-07,0.3,0.95,0
0.01707,-0.0075601,0.027519,-0.00046503,0.0081163,-0.00037472,0,0,0.050448,-0.022311,0,-0.0019485,0,0,0,0.027526,-0.00047152,0.0081163,-0.75985,0.011724,0.024843,4.8247e-07,0.31,0.95,0
0.017573,-0.0075194,0.027251,-0.00077922,0.0079414,-0.00061782,0,0,0.050204,-0.022674,0,-0.0032127,0,0,0,0.027267,-0.00079566,0.0079414,-1.2524,0.011471,0.024873,4.7457e-07,0.32,0.95,0
0.018074,-0.0074794,0.026923,-0.001151,0.0077316,-0.00099615,0,0,0.049897,-0.023095,0,-0.00518,0,0,0,0.026965,-0.0011929,0.0077316,-2.0141,0.011168,0.024925,4.6544e-07,0.33,0.95,0
0.018571,-0.0074488,0.026626,-0.0013814,0.0075733,-0.0014718,0,0,0.049536,-0.023282,0,-0.0076535,0,0,0,0.026711,-0.0014667,0.0075733,-2.9862,0.010939,0.02492,4.5714e-07,0.34,0.95,0
0.019065,-0.0074366,0.026721,-0.0011963,0.0076574,-0.0018883,0,0,0.048452,-0.02252,0,-0.0097871,0,0,0,0.02686,-0.0013351,0.0076574,-3.8956,0.011061,0.024946,4.7282e-07,0.35,0.95,0
0.019544,-0.0074442,0.027238,-0.00091791,0.0078961,-0.0021255,0,0,0.045001,-0.02047,0,-0.010628,0,0,0,0.027425,-0.001105,0.0078961,-4.4791,0.011405,0.025263,5.2642e-07,0.36,0.95,0
0.019977,-0.0074726,0.027661,-0.0006832,0.0080934,-0.0020554,0,0,0.039671,-0.017817,0,-0.0097151,0,0,0,0.027861,-0.00088273,0.0080934,-4.5066,0.01169,0.025474,5.7817e-07,0.37,0.95,0
0.020351,-0.0075263,0.028143,-7.7661e-05,0.0084195,-0.0016712,0,0,0.036177,-0.015829,0,-0.0078254,0,0,0,0.028309,-0.0002441,0.0084195,-3.9341,0.012161,0.025364,6.1579e-07,0.38,0.95,0
0.020706,-0.0076053,0.028756,0.00049594,0.0087756,-0.0011196,0,0,0.034955,-0.014664,0,-0.0055344,0,0,0,0.028868,0.0003843,0.0087756,-2.8619,0.012676,0.025357,6.4024e-07,0.39,0.95,0
0.02105,-0.0077006,0.029526,0.00060469,0.0090392,-0.00065414,0,0,0.032997,-0.013556,0,-0.0033134,0,0,0,0.029593,0.00053751,0.0090392,-1.8026,0.013057,0.025877,6.5949e-07,0.4,0.95,0
0.021365,-0.0078003,0.030783,0.00070586,0.0094468,-0.0004732,0,0,0.030912,-0.012663,0,-0.002091,0,0,0,0.030825,0.00066401,0.0094468,-1.2823,0.013645,0.02687,7.1035e-07,0.41,0.95,0
0.021668,-0.0079009,0.031869,0.00096607,0.0098505,-0.00040091,0,0,0.030592,-0.012388,0,-0.0015505,0,0,0,0.031892,0.00094277,0.0098505,-1.0004,0.014228,0.027596,7.6623e-07,0.42,0.95,0
0.021977,-0.008005,0.032389,0.0011884,0.010073,-0.00030565,0,0,0.031035,-0.012383,0,-0.0011193,0,0,0,0.032399,0.0011784,0.010073,-0.71707,0.01455,0.02786,7.9569e-07,0.43,0.95,0
0.022288,-0.0081166,0.032472,0.0012287,0.01011,-0.00017564,0,0,0.031131,-0.012344,0,-0.00064363,0,0,0,0.032477,0.0012242,0.01011,-0.40846,0.014604,0.027893,7.9906e-07,0.44,0.95,0
0.022597,-0.0082343,0.032233,0.0010942,0.0099983,-0.0001168,0,0,0.030982,-0.012295,0,-0.00038047,0,0,0,0.032238,0.00109,0.0099983,-0.24499,0.014442,0.027788,7.8409e-07,0.45,0.95,0
0.022903,-0.0083485,0.032206,0.0011097,0.0099948,-0.00017853,0,0,0.030949,-0.012269,0,-0.00044703,0,0,0,0.032211,0.0011051,0.0099948,-0.30287,0.014437,0.027752,7.8164e-07,0.46,0.95,0
0.023211,-0.0084594,0.032385,0.0012594,0.010093,-0.00011618,0,0,0.031034,-0.012277,0,-0.00017725,0,0,0,0.032389,0.0012556,0.010093,-0.13214,0.014579,0.02779,7.9161e-07,0.47,0.95,0
0.023522,-0.0085762,0.032241,0.0012251,0.01004,2.5153e-05,0,0,0.030875,-0.012284,0,0.000327,0,0,0,0.032248,0.0012181,0.01004,0.19718,0.014502,0.027694,7.8352e-07,0.48,0.95,0
0.023829,-0.0086999,0.031667,0.0010171,0.0098053,0.00013929,0,0,0.030372,-0.012253,0,0.00080884,0,0,0,0.031686,0.00099845,0.0098053,0.51492,0.014163,0.027369,7.5019e-07,0.49,0.95,0
0.024129,-0.0088263,0.030539,0.00077599,0.0093946,0.00023893,0,0,0.030627,-0.012484,0,0.001403,0,0,0,0.030576,0.00073977,0.0093946,0.84445,0.01357,0.026588,6.918e-07,0.5,0.95,0
0.024441,-0.0089527,0.029245,0.0006893,0.0089802,0.00045307,0,0,0.032629,-0.013323,0,0.0026597,0,0,0,0.029305,0.00062932,0.0089802,1.4244,0.012971,0.025548,6.3877e-07,0.51,0.95,0
0.024781,-0.0090827,0.028435,0.00058537,0.0087061,0.00094965,0,0,0.034507,-0.014381,0,0.0049206,0,0,0,0.028535,0.0004852,0.0087061,2.5542,0.012576,0.024981,6.1658e-07,0.52,0.95,0
0.025131,-0.0092275,0.027787,2.6043e-05,0.0083439,0.0015311,0,0,0.035656,-0.015495,0,0.0072928,0,0,0,0.027939,-0.00012639,0.0083439,3.7094,0.012052,0.024941,5.9e-07,0.53,0.95,0
0.0255,-0.0093958,0.027282,-0.00056037,0.0080166,0.0019487,0,0,0.039054,-0.017415,0,0.0092856,0,0,0,0.02747,-0.00074808,0.0080166,4.3703,0.011579,0.025018,5.5209e-07,0.54,0.95,0
0.025926,-0.0095874,0.026849,-0.00078717,0.0078184,0.0020578,0,0,0.044272,-0.01999,0,0.010326,0,0,0,0.027029,-0.00096741,0.0078184,4.4263,0.011293,0.0248,5.0195e-07,0.55,0.95,0
0.026397,-0.009798,0.02633,-0.0010578,0.0075815,0.0018641,0,0,0.047649,-0.021976,0,0.0096696,0,0,0,0.026467,-0.0011955,0.0075815,3.9211,0.010951,0.024485,4.5056e-07,0.56,0.95,0
0.026882,-0.010026,0.026232,-0.0012355,0.0074989,0.001493,0,0,0.048705,-0.022709,0,0.0077636,0,0,0,0.02632,-0.0013239,0.0074989,3.0887,0.010832,0.024457,4.3554e-07,0.57,0.95,0
0.027371,-0.010271,0.026524,-0.0010094,0.0076544,0.0010632,0,0,0.049061,-0.022526,0,0.0055286,0,0,0,0.026571,-0.0010564,0.0076544,2.1932,0.011056,0.024465,4.4349e-07,0.58,0.95,0
0.027863,-0.010524,0.02685,-0.00064922,0.0078602,0.00072772,0,0,0.049373,-0.022124,0,0.0037842,0,0,0,0.026871,-0.00067092,0.0078602,1.5056,0.011354,0.024422,4.5233e-07,0.59,0.95,0
0.028358,-0.010775,0.02712,-0.0003487,0.0080313,0.00052241,0,0,0.04963,-0.021788,0,0.0027165,0,0,0,0.027131,-0.0003599,0.0080313,1.0824,0.011601,0.024403,4.6016e-07,0.6,0.95,0
0.028856,-0.011022,0.027329,-9.9219e-05,0.008169,0.00040834,0,0,0.049816,-0.021497,0,0.0021234,0,0,0,0.027336,-0.00010588,0.008169,0.84812,0.0118,0.024381,4.6604e-07,0.61,0.95,0
0.029355,-0.011259,0.027499,8.8955e-05,0.0082764,0.00037167,0,0,0.049979,-0.021287,0,0.0019327,0,0,0,0.027505,8.355e-05,0.0082764,0.77321,0.011955,0.02438,4.712e-07,0.62,0.95,0
0.029855,-0.011485,0.027647,0.0002146,0.0083585,0.00039063,0,0,0.05015,-0.021174,0,0.0020313,0,0,0,0.027653,0.0002087,0.0083585,0.81264,0.012073,0.024412,4.7649e-07,0.63,0.95,0
0.030358,-0.011698,0.027785,0.00028929,0.0084222,0.00044578,0,0,0.050343,-0.021146,0,0.0023181,0,0,0,0.027792,0.00028171,0.0084222,0.92574,0.012165,0.024478,4.8234e-07,0.64,0.95,0
0.030862,-0.011896,0.027919,0.0003249,0.008473,0.00052229,0,0,0.050558,-0.021185,0,0.0027159,0,0,0,0.027929,0.00031463,0.008473,1.0811,0.012239,0.024573,4.8886e-07,0.65,0.95,0
0.031369,-0.012079,0.028052,0.00033079,0.0085148,0.00060925,0,0,0.050796,-0.021278,0,0.0031681,0,0,0,0.028066,0.00031701,0.0085148,1.2555,0.012299,0.024692,4.9605e-07,0.66,0.95,0
0.031878,-0.012247,0.028186,0.00031435,0.0085502,0.00069807,0,0,0.051054,-0.021413,0,0.0036299,0,0,0,0.028204,0.00029649,0.0085502,1.4309,0.01235,0.024832,5.0387e-07,0.67,0.95,0
0.03239,-0.0124,0.028324,0.00028229,0.0085818,0.00078207,0,0,0.051329,-0.021579,0,0.0040668,0,0,0,0.028346,0.00026012,0.0085818,1.5934,0.012396,0.024987,5.1224e-07,0.68,0.95,0
0.032905,-0.012538,0.028464,0.00024059,0.0086113,0.00085663,0,0,0.051616,-0.021764,0,0.0044545,0,0,0,0.02849,0.00021427,0.0086113,1.7341,0.012438,0.025151,5.2103e-07,0.69,0.95,0
0.033422,-0.012663,0.028606,0.00019419,0.00864,0.00091898,0,0,0.051911,-0.021959,0,0.0047787,0,0,0,0.028636,0.00016417,0.00864,1.8479,0.01248,0.025321,5.301e-07,0.7,0.95,0
0.033943,-0.012775,0.02875,0.00014679,0.0086689,0.00096788,0,0,0.05221,-0.022157,0,0.005033,0,0,0,0.028783,0.00011378,0.0086689,1.9333,0.012522,0.025492,5.3932e-07,0.71,0.95,0
0.034466,-0.012875,0.028894,0.00010102,0.0086985,0.0010032,0,0,0.052508,-0.022353,0,0.0052165,0,0,0,0.028929,6.5823e-05,0.0086985,1.9906,0.012564,0.02566,5.4857e-07,0.72,0.95,0
0.034993,-0.012963,0.029038,5.8556e-05,0.0087289,0.0010254,0,0,0.052803,-0.022543,0,0.0053322,0,0,0,0.029074,2.2041e-05,0.0087289,2.0217,0.012608,0.025824,5.5778e-07,0.73,0.95,0
0.035523,-0.013042,0.029181,2.0371e-05,0.0087604,0.0010356,0,0,0.053094,-0.022724,0,0.0053852,0,0,0,0.029218,-1.6632e-05,0.0087604,2.0293,0.012654,0.025983,5.6686e-07,0.74,0.95,0
0.036055,-0.013111,0.029322,-1.3097e-05,0.0087928,0.001035,0,0,0.053377,-0.022895,0,0.0053821,0,0,0,0.029359,-4.9832e-05,0.0087928,2.0162,0.012701,0.026135,5.7579e-07,0.75,0.95,0
0.03659,-0.013172,0.029461,-4.1783e-05,0.0088259,0.0010249,0,0,0.053652,-0.023056,0,0.0053295,0,0,0,0.029497,-7.7604e-05,0.0088259,1.9854,0.012749,0.02628,5.8451e-07,0.76,0.95,0
0.037128,-0.013225,0.029598,-6.5871e-05,0.0088595,0.0010067,0,0,0.053919,-0.023206,0,0.0052347,0,0,0,0.029632,-0.00010025,0.0088595,1.9398,0.012797,0.026418,5.9301e-07,0.77,0.95,0
0.037668,-0.013272,0.02973,-8.57e-05,0.0088934,0.00098154,0,0,0.054176,-0.023346,0,0.005104,0,0,0,0.029763,-0.00011823,0.0088934,1.8819,0.012846,0.026548,6.0125e-07,0.78,0.95,0
0.038211,-0.013313,0.029859,-0.00010169,0.0089273,0.00095072,0,0,0.054423,-0.023475,0,0.0049437,0,0,0,0.02989,-0.00013207,0.0089273,1.8143,0.012895,0.026672,6.0924e-07,0.79,0.95,0
0.038757,-0.013348,0.029984,-0.0001143,0.0089609,0.00091527,0,0,0.05466,-0.023596,0,0.0047594,0,0,0,0.030012,-0.00014234,0.0089609,1.7389,0.012944,0.026789,6.1694e-07,0.8,0.95,0
0.039305,-0.013378,0.030104,-0.00012399,0.008994,0.00087613,0,0,0.054886,-0.023707,0,0.0045559,0,0,0,0.03013,-0.00014959,0.008994,1.6577,0.012991,0.026899,6.2435e-07,0.81,0.95,0
0.039855,-0.013405,0.030219,-0.0001312,0.0090264,0.00083413,0,0,0.055101,-0.02381,0,0.0043375,0,0,0,0.030242,-0.00015432,0.0090264,1.5721,0.013038,0.027003,6.3145e-07,0.82,0.95,0
0.040407,-0.013427,0.030329,-0.00013633,0.0090578,0.00078996,0,0,0.055305,-0.023905,0,0.0041078,0,0,0,0.03035,-0.000157,0.0090578,1.4834,0.013083,0.027101,6.3822e-07,0.83,0.95,0
0.040961,-0.013446,0.030433,-0.00013975,0.009088,0.00074422,0,0,0.055497,-0.023992,0,0.0038699,0,0,0,0.030452,-0.00015804,0.009088,1.3928,0.013127,0.027192,6.4467e-07,0.84,0.95,0
0.041517,-0.013463,0.030532,-0.00014179,0.009117,0.00069739,0,0,0.055678,-0.024073,0,0.0036264,0,0,0,0.030548,-0.00015781,0.009117,1.3011,0.013169,0.027278,6.5078e-07,0.85,0.95,0
0.042074,-0.013477,0.030624,-0.00014274,0.0091445,0.00064989,0,0,0.055848,-0.024147,0,0.0033794,0,0,0,0.030638,-0.00015662,0.0091445,1.2089,0.013209,0.027357,6.5653e-07,0.86,0.95,0
0.042634,-0.013488,0.030711,-0.00014284,0.0091705,0.00060202,0,0,0.056006,-0.024215,0,0.0031305,0,0,0,0.030723,-0.00015472,0.0091705,1.1169,0.013246,0.027431,6.6192e-07,0.87,0.95,0
0.043194,-0.013498,0.030792,-0.00014231,0.0091948,0.00055404,0,0,0.056152,-0.024276,0,0.002881,0,0,0,0.030802,-0.00015235,0.0091948,1.0253,0.013281,0.027499,6.6695e-07,0.88,0.95,0
0.043757,-0.013506,0.030866,-0.00014132,0.0092173,0.00050615,0,0,0.056286,-0.024332,0,0.002632,0,0,0,0.030874,-0.00014969,0.0092173,0.93455,0.013314,0.027561,6.7159e-07,0.89,0.95,0
0.04432,-0.013513,0.030934,-0.00014002,0.0092381,0.00045847,0,0,0.056408,-0.024383,0,0.002384,0,0,0,0.03094,-0.00014688,0.0092381,0.84477,0.013344,0.027618,6.7585e-07,0.9,0.95,0
0.044885,-0.013519,0.030995,-0.00013855,0.009257,0.0004111,0,0,0.056519,-0.024428,0,0.0021377,0,0,0,0.031001,-0.00014407,0.009257,0.75608,0.013371,0.027669,6.7973e-07,0.91,0.95,0
0.045451,-0.013524,0.03105,-0.00013701,0.0092739,0.00036409,0,0,0.056618,-0.024469,0,0.0018933,0,0,0,0.031054,-0.00014133,0.0092739,0.66853,0.013396,0.027715,6.832e-07,0.92,0.95,0
0.046017,-0.013527,0.031099,-0.00013548,0.009289,0.00031748,0,0,0.056705,-0.024504,0,0.0016509,0,0,0,0.031102,-0.00013877,0.009289,0.5821,0.013417,0.027755,6.8628e-07,0.93,0.95,0
0.046585,-0.01353,0.031141,-0.00013403,0.0093021,0.00027126,0,0,0.056781,-0.024534,0,0.0014106,0,0,0,0.031143,-0.00013644,0.0093021,0.49674,0.013436,0.02779,6.8895e-07,0.94,0.95,0
0.047153,-0.013533,0.031177,-0.00013272,0.0093132,0.00022541,0,0,0.056845,-0.024559,0,0.0011722,0,0,0,0.031178,-0.0001344,0.0093132,0.41235,0.013452,0.027819,6.9122e-07,0.95,0.95,0
0.047722,-0.013534,0.031206,-0.0001316,0.0093223,0.0001799,0,0,0.056897,-0.02458,0,0.00093548,0,0,0,0.031207,-0.00013267,0.0093223,0.32881,0.013466,0.027843,6.9308e-07,0.96,0.95,0
0.048291,-0.013536,0.031229,-0.00013069,0.0093294,0.00013467,0,0,0.056938,-0.024596,0,0.00070027,0,0,0,0.031229,-0.00013131,0.0093294,0.24597,0.013476,0.027862,6.9453e-07,0.97,0.95,0
0.04886,-0.013537,0.031245,-0.00013002,0.0093344,8.9652e-05,0,0,0.056967,-0.024608,0,0.00046619,0,0,0,0.031245,-0.00013032,0.0093344,0.16367,0.013483,0.027875,6.9556e-07,0.98,0.95,0
0.04943,-0.013537,0.031254,-0.00012962,0.0093375,4.396e-05,0,0,0.056984,-0.024614,0,0.00022859,0,0,0,0.031255,-0.00012971,0.0093375,0.080231,0.013487,0.027883,6.9618e-07,0.99,0.95,0
0.049715,-0.013537,0.031258,-0.00012948,0.0093385,2.0729e-05,0,0,0.05699,-0.024617,0,0.00010779,0,0,0,0.031258,-0.00012951,0.0093385,0.037826,0.013489,0.027886,6.9639e-07,1,0.95,0
0.00027371,-0.00028771,0.036688,0.014287,0.015293,-0.010918,0,0,0.055628,-0.0026138,0,-0.056775,0,0,0,0.04114,0.0098349,0.015293,-22.158,0.022089,0.028971,1.1063e-06,0,0.96,0
0.00055628,-0.00058499,0.036718,0.012735,0.014836,-0.010731,0,0,0.056894,-0.005463,0,-0.055799,0,0,0,0.040848,0.0086051,0.014836,-20.992,0.02143,0.029635,1.143e-06,0.01,0.96,0
0.0011379,-0.0011894,0.036894,0.0097076,0.01398,-0.010152,0,0,0.059575,-0.011109,0,-0.052789,0,0,0,0.04031,0.0062912,0.01398,-18.478,0.020194,0.03091,1.2084e-06,0.02,0.96,0
0.0017478,-0.0017974,0.037012,0.0070823,0.013228,-0.0091506,0,0,0.061838,-0.01598,0,-0.047583,0,0,0,0.039638,0.0044562,0.013228,-15.794,0.019108,0.031724,1.2286e-06,0.03,0.96,0
0.0023746,-0.0023831,0.036769,0.0051237,0.012568,-0.0078919,0,0,0.062924,-0.019355,0,-0.041038,0,0,0,0.038673,0.0032197,0.012568,-13.293,0.018154,0.031829,1.1885e-06,0.04,0.96,0
0.0030063,-0.0029325,0.036207,0.0037545,0.011988,-0.0066558,0,0,0.062968,-0.021408,0,-0.03461,0,0,0,0.037555,0.0024063,0.011988,-11.167,0.017316,0.031473,1.116e-06,0.05,0.96,0
0.003634,-0.0034415,0.035456,0.0027993,0.011477,-0.0055729,0,0,0.062346,-0.022561,0,-0.028979,0,0,0,0.036408,0.0018469,0.011477,-9.4238,0.016577,0.030894,1.0341e-06,0.06,0.96,0
0.0042532,-0.0039108,0.034643,0.0021248,0.01103,-0.0046712,0,0,0.061393,-0.023155,0,-0.02429,0,0,0,0.035322,0.0014464,0.01103,-8.0082,0.015933,0.030245,9.5556e-07,0.07,0.96,0
0.0048619,-0.0043426,0.033844,0.0016401,0.010645,-0.0039348,0,0,0.060317,-0.023414,0,-0.020461,0,0,0,0.034334,0.0011509,0.010645,-6.856,0.015377,0.029601,8.8544e-07,0.08,0.96,0
0.0054595,-0.0047399,0.033096,0.0012855,0.010314,-0.0033366,0,0,0.059232,-0.023475,0,-0.01735,0,0,0,0.033454,0.00092778,0.010314,-5.9122,0.014899,0.028996,8.2473e-07,0.09,0.96,0
0.0060465,-0.0051055,0.032413,0.0010214,0.01003,-0.0028497,0,0,0.058195,-0.023423,0,-0.014818,0,0,0,0.032678,0.00075616,0.01003,-5.1332,0.014488,0.028443,7.7283e-07,0.1,0.96,0
0.0066234,-0.0054419,0.031798,0.00082173,0.009786,-0.0024514,0,0,0.057232,-0.023307,0,-0.012747,0,0,0,0.031998,0.00062239,0.009786,-4.4852,0.014135,0.027944,7.2862e-07,0.11,0.96,0
0.0071911,-0.0057511,0.031248,0.00066897,0.0095752,-0.0021233,0,0,0.05635,-0.023156,0,-0.011041,0,0,0,0.0314,0.00051725,0.0095752,-3.942,0.013831,0.027497,6.9091e-07,0.12,0.96,0
0.0077504,-0.006035,0.030758,0.00055126,0.0093929,-0.0018509,0,0,0.05555,-0.022988,0,-0.0096245,0,0,0,0.030875,0.00043443,0.0093929,-3.4829,0.013568,0.027096,6.5863e-07,0.13,0.96,0
0.0083021,-0.0062952,0.030322,0.00046045,0.0092347,-0.0016225,0,0,0.054827,-0.022813,0,-0.008437,0,0,0,0.030413,0.00036956,0.0092347,-3.0915,0.013339,0.026737,6.3084e-07,0.14,0.96,0
0.008847,-0.0065329,0.029933,0.00039086,0.0090972,-0.0014288,0,0,0.054174,-0.022637,0,-0.00743,0,0,0,0.030005,0.00031957,0.0090972,-2.7539,0.01314,0.026414,6.0679e-07,0.15,0.96,0
0.0093856,-0.0067491,0.029587,0.00033848,0.0089775,-0.0012623,0,0,0.053584,-0.022462,0,-0.0065638,0,0,0,0.029643,0.00028224,0.0089775,-2.4587,0.012968,0.026122,5.8585e-07,0.16,0.96,0
0.0099187,-0.0069446,0.029277,0.00030036,0.0088733,-0.0011165,0,0,0.05305,-0.02229,0,-0.0058056,0,0,0,0.029322,0.00025592,0.0088733,-2.196,0.012817,0.025857,5.6752e-07,0.17,0.96,0
0.010447,-0.0071201,0.029001,0.00027426,0.0087825,-0.00098609,0,0,0.052567,-0.022121,0,-0.0051277,0,0,0,0.029036,0.00023924,0.0087825,-1.9571,0.012686,0.025617,5.5137e-07,0.18,0.96,0
0.01097,-0.0072761,0.028753,0.00025823,0.0087034,-0.00086674,0,0,0.052129,-0.021958,0,-0.004507,0,0,0,0.028781,0.0002309,0.0087034,-1.7346,0.012572,0.025396,5.3709e-07,0.19,0.96,0
0.011489,-0.0074129,0.028532,0.00025042,0.0086346,-0.00075474,0,0,0.051732,-0.021799,0,-0.0039246,0,0,0,0.028553,0.00022946,0.0086346,-1.5222,0.012472,0.025195,5.2442e-07,0.2,0.96,0
0.012005,-0.0075308,0.028333,0.00024877,0.0085746,-0.00064726,0,0,0.051372,-0.021647,0,-0.0033658,0,0,0,0.028349,0.00023315,0.0085746,-1.3146,0.012385,0.025011,5.1315e-07,0.21,0.96,0
0.012517,-0.0076302,0.028155,0.00025083,0.0085218,-0.00054245,0,0,0.051047,-0.021505,0,-0.0028207,0,0,0,0.028166,0.00023968,0.0085218,-1.1088,0.012309,0.024844,5.0313e-07,0.22,0.96,0
0.013026,-0.0077111,0.027996,0.00025357,0.0084747,-0.0004396,0,0,0.050754,-0.021375,0,-0.0022859,0,0,0,0.028003,0.00024608,0.0084747,-0.90364,0.012241,0.024693,4.9426e-07,0.23,0.96,0
0.013532,-0.0077739,0.027852,0.00025328,0.0084315,-0.00033945,0,0,0.050492,-0.021263,0,-0.0017651,0,0,0,0.027856,0.00024865,0.0084315,-0.70102,0.012179,0.024561,4.8644e-07,0.24,0.96,0
0.014035,-0.007819,0.027721,0.00024556,0.0083899,-0.00024437,0,0,0.05026,-0.021175,0,-0.0012707,0,0,0,0.027723,0.00024299,0.0083899,-0.50636,0.012119,0.024447,4.7957e-07,0.25,0.96,0
0.014537,-0.007847,0.027599,0.00022529,0.0083473,-0.00015856,0,0,0.050054,-0.021117,0,-0.0008245,0,0,0,0.0276,0.00022403,0.0083473,-0.32897,0.012057,0.024353,4.7353e-07,0.26,0.96,0
0.015037,-0.0078589,0.027482,0.0001864,0.0083007,-8.8247e-05,0,0,0.049873,-0.021097,0,-0.00045888,0,0,0,0.027483,0.00018582,0.0083007,-0.18252,0.01199,0.024279,4.682e-07,0.27,0.96,0
0.015534,-0.0078559,0.027365,0.0001216,0.0082461,-4.2119e-05,0,0,0.04971,-0.021124,0,-0.00021902,0,0,0,0.027366,0.00012127,0.0082461,-0.085872,0.011911,0.024226,4.6339e-07,0.28,0.96,0
0.016031,-0.0078399,0.02724,2.2918e-05,0.008179,-3.1723e-05,0,0,0.049559,-0.021206,0,-0.00016496,0,0,0,0.027241,2.2586e-05,0.008179,-0.063798,0.011814,0.024194,4.5882e-07,0.29,0.96,0
0.016526,-0.0078131,0.027097,-0.00011512,0.0080945,-7.1212e-05,0,0,0.049406,-0.021345,0,-0.0003703,0,0,0,0.027098,-0.0001158,0.0080945,-0.14627,0.011692,0.024177,4.5408e-07,0.3,0.96,0
0.017019,-0.0077788,0.026924,-0.00029276,0.0079895,-0.00017503,0,0,0.049231,-0.021534,0,-0.00091014,0,0,0,0.026926,-0.00029486,0.0079895,-0.3637,0.01154,0.024169,4.4863e-07,0.31,0.96,0
0.01751,-0.0077409,0.026719,-0.00050317,0.0078647,-0.00036025,0,0,0.04902,-0.021756,0,-0.0018733,0,0,0,0.026725,-0.00050986,0.0078647,-0.75176,0.01136,0.024162,4.4229e-07,0.32,0.96,0
0.017999,-0.0077043,0.026451,-0.00075143,0.00771,-0.0006504,0,0,0.048727,-0.022,0,-0.0033821,0,0,0,0.026471,-0.00077065,0.00771,-1.36,0.011137,0.024145,4.3409e-07,0.33,0.96,0
0.018485,-0.0076757,0.026071,-0.00095207,0.0075356,-0.0010579,0,0,0.048191,-0.022068,0,-0.0055012,0,0,0,0.026119,-0.0010002,0.0075356,-2.2291,0.010885,0.024018,4.2084e-07,0.34,0.96,0
0.018963,-0.0076598,0.025584,-0.00094757,0.0073909,-0.0015279,0,0,0.047302,-0.02168,0,-0.007945,0,0,0,0.025681,-0.0010451,0.0073909,-3.2725,0.010676,0.023665,4.0148e-07,0.35,0.96,0
0.019431,-0.0076554,0.025265,-0.00085546,0.0073228,-0.0019703,0,0,0.045602,-0.020763,0,-0.010062,0,0,0,0.025426,-0.0010164,0.0073228,-4.2943,0.010577,0.023415,3.9777e-07,0.36,0.96,0
0.019879,-0.0076643,0.025072,-0.00072224,0.0073051,-0.0022316,0,0,0.043038,-0.019463,0,-0.011156,0,0,0,0.025283,-0.00093243,0.0073051,-5.0207,0.010552,0.023221,4.0969e-07,0.37,0.96,0
0.020299,-0.0076991,0.02476,-0.00027194,0.0073464,-0.0021842,0,0,0.040997,-0.018083,0,-0.01098,0,0,0,0.024975,-0.00048643,0.0073464,-5.1887,0.010612,0.022591,4.0727e-07,0.38,0.96,0
0.020702,-0.0077629,0.024857,0.00019604,0.0075158,-0.0019285,0,0,0.038982,-0.016537,0,-0.0097404,0,0,0,0.025046,7.033e-06,0.0075158,-4.8156,0.010856,0.022259,4.1273e-07,0.39,0.96,0
0.021082,-0.0078418,0.025428,0.00033769,0.0077299,-0.0016255,0,0,0.035527,-0.014786,0,-0.0079244,0,0,0,0.025588,0.00017818,0.0077299,-4.2281,0.011165,0.022603,4.4444e-07,0.4,0.96,0
0.02142,-0.0079289,0.02597,0.00051336,0.0079449,-0.0013364,0,0,0.032727,-0.013535,0,-0.0061958,0,0,0,0.02609,0.00039313,0.0079449,-3.6139,0.011476,0.022878,4.8226e-07,0.41,0.96,0
0.02174,-0.0080262,0.026536,0.00080408,0.008202,-0.0010251,0,0,0.03227,-0.013109,0,-0.0046324,0,0,0,0.026608,0.00073197,0.008202,-2.8126,0.011847,0.023068,5.2019e-07,0.42,0.96,0
0.022066,-0.0081309,0.027102,0.0010444,0.0084441,-0.0006858,0,0,0.032762,-0.013043,0,-0.0031182,0,0,0,0.027136,0.0010104,0.0084441,-1.8908,0.012197,0.023316,5.5164e-07,0.43,0.96,0
0.022396,-0.0082413,0.027211,0.0011065,0.0084953,-0.00032879,0,0,0.032312,-0.012702,0,-0.001663,0,0,0,0.027225,0.0010921,0.0084953,-0.99245,0.012271,0.023332,5.4791e-07,0.44,0.96,0
0.022711,-0.0083564,0.026846,0.0009579,0.0083411,-0.00012926,0,0,0.030838,-0.012059,0,-0.00066191,0,0,0,0.026855,0.00094862,0.0083411,-0.40444,0.012048,0.023119,5.1215e-07,0.45,0.96,0
0.02301,-0.0084703,0.026822,0.00096992,0.0083376,-0.00010881,0,0,0.0308,-0.012033,0,-0.00014553,0,0,0,0.026831,0.00096102,0.0083376,-0.13336,0.012043,0.023087,5.1059e-07,0.46,0.96,0
0.023325,-0.0085835,0.027131,0.0011276,0.0084775,9.7127e-05,0,0,0.032198,-0.012633,0,0.00083816,0,0,0,0.027141,0.0011174,0.0084775,0.4725,0.012245,0.023237,5.426e-07,0.47,0.96,0
0.023653,-0.0087011,0.026961,0.0010664,0.0084083,0.00046355,0,0,0.032572,-0.012939,0,0.0023043,0,0,0,0.026985,0.001043,0.0084083,1.3967,0.012145,0.023155,5.423e-07,0.48,0.96,0
0.023976,-0.0088239,0.02634,0.00083472,0.0081525,0.0008145,0,0,0.032007,-0.012963,0,0.0038567,0,0,0,0.026397,0.0007784,0.0081525,2.3543,0.011776,0.022843,5.0764e-07,0.49,0.96,0
0.024293,-0.0089531,0.025725,0.00055473,0.0078838,0.0011414,0,0,0.032385,-0.013345,0,0.0054638,0,0,0,0.025826,0.00045345,0.0078838,3.2091,0.011388,0.022595,4.6741e-07,0.5,0.96,0
0.024628,-0.0090915,0.025144,0.00038871,0.0076599,0.0014526,0,0,0.035086,-0.014542,0,0.0072236,0,0,0,0.025284,0.00024888,0.0076599,3.8909,0.011064,0.022277,4.2826e-07,0.51,0.96,0
0.025002,-0.0092373,0.024544,0.00025514,0.0074399,0.0017833,0,0,0.038444,-0.016231,0,0.0090817,0,0,0,0.024714,8.5527e-05,0.0074399,4.5528,0.010746,0.021901,3.9579e-07,0.52,0.96,0
0.0254,-0.0093967,0.024422,-0.00019895,0.007267,0.0020661,0,0,0.040387,-0.017722,0,0.010415,0,0,0,0.02462,-0.00039618,0.007267,5.0031,0.010497,0.022203,3.8906e-07,0.53,0.96,0
0.025814,-0.0095833,0.024713,-0.00063636,0.0072229,0.0021421,0,0,0.042365,-0.019059,0,0.010725,0,0,0,0.02491,-0.00083418,0.0072229,4.9103,0.010433,0.022811,3.9063e-07,0.54,0.96,0
0.026254,-0.0097939,0.024892,-0.00076382,0.0072385,0.0019166,0,0,0.044869,-0.020318,0,0.0097948,0,0,0,0.025047,-0.00091866,0.0072385,4.2548,0.010456,0.022999,3.7907e-07,0.55,0.96,0
0.026714,-0.010016,0.025202,-0.00084946,0.0073058,0.0015139,0,0,0.046531,-0.021204,0,0.0078722,0,0,0,0.025299,-0.00094624,0.0073058,3.3018,0.010553,0.023245,3.8262e-07,0.56,0.96,0
0.027185,-0.010248,0.025682,-0.0008495,0.0074499,0.0010849,0,0,0.047405,-0.021578,0,0.0056417,0,0,0,0.025733,-0.00089992,0.0074499,2.3283,0.010761,0.023594,4.0119e-07,0.57,0.96,0
0.027662,-0.010491,0.026062,-0.000652,0.007623,0.00071822,0,0,0.047942,-0.021515,0,0.0037347,0,0,0,0.026085,-0.00067457,0.007623,1.5303,0.011011,0.023725,4.1406e-07,0.58,0.96,0
0.028144,-0.01074,0.026335,-0.00041113,0.0077771,0.00046595,0,0,0.04825,-0.021289,0,0.0024229,0,0,0,0.026345,-0.00042096,0.0077771,0.99161,0.011234,0.023753,4.2232e-07,0.59,0.96,0
0.028627,-0.010989,0.02655,-0.00020982,0.0079022,0.00031472,0,0,0.048486,-0.021091,0,0.0016366,0,0,0,0.026555,-0.00021442,0.0079022,0.66905,0.011414,0.023774,4.2902e-07,0.6,0.96,0
0.029113,-0.011233,0.026737,-4.2768e-05,0.0080082,0.00024056,0,0,0.048694,-0.020932,0,0.0012509,0,0,0,0.026739,-4.5443e-05,0.0080082,0.51095,0.011567,0.023803,4.3508e-07,0.61,0.96,0
0.029601,-0.01147,0.026896,8.3451e-05,0.0080939,0.00022585,0,0,0.048886,-0.020827,0,0.0011744,0,0,0,0.026899,8.1183e-05,0.0080939,0.47948,0.011691,0.023843,4.4067e-07,0.62,0.96,0
0.030091,-0.011695,0.027039,0.00016907,0.0081625,0.00025555,0,0,0.04908,-0.020783,0,0.0013289,0,0,0,0.027042,0.00016629,0.0081625,0.54199,0.01179,0.023903,4.4624e-07,0.63,0.96,0
0.030583,-0.011908,0.027174,0.0002193,0.008218,0.00031486,0,0,0.049286,-0.020797,0,0.0016373,0,0,0,0.027178,0.00021525,0.008218,0.66631,0.01187,0.023985,4.5214e-07,0.64,0.96,0
0.031077,-0.012107,0.027307,0.00024172,0.0082647,0.00039143,0,0,0.049511,-0.02086,0,0.0020355,0,0,0,0.027313,0.00023566,0.0082647,0.82547,0.011938,0.024088,4.5856e-07,0.65,0.96,0
0.031573,-0.012291,0.027442,0.0002432,0.0083056,0.0004756,0,0,0.049755,-0.020962,0,0.0024731,0,0,0,0.027451,0.00023447,0.0083056,0.9984,0.011997,0.024212,4.6558e-07,0.66,0.96,0
0.032072,-0.01246,0.027581,0.00022944,0.0083432,0.00056,0,0,0.050019,-0.021096,0,0.002912,0,0,0,0.027593,0.00021756,0.0083432,1.1692,0.012051,0.024352,4.732e-07,0.67,0.96,0
0.032574,-0.012614,0.027726,0.00020523,0.0083794,0.00063915,0,0,0.050301,-0.021253,0,0.0033236,0,0,0,0.027741,0.00018997,0.0083794,1.3265,0.012104,0.024505,4.814e-07,0.68,0.96,0
0.033078,-0.012754,0.027876,0.00017461,0.0084153,0.00070927,0,0,0.050599,-0.021426,0,0.0036882,0,0,0,0.027895,0.00015605,0.0084153,1.4625,0.012155,0.024669,4.9011e-07,0.69,0.96,0
0.033586,-0.012881,0.028032,0.00014091,0.0084518,0.00076807,0,0,0.050908,-0.021608,0,0.0039939,0,0,0,0.028053,0.00011936,0.0084518,1.573,0.012208,0.024839,4.9923e-07,0.7,0.96,0
0.034096,-0.012995,0.028192,0.00010667,0.0084895,0.00081447,0,0,0.051226,-0.021795,0,0.0042353,0,0,0,0.028216,8.2665e-05,0.0084895,1.6566,0.012263,0.025013,5.0866e-07,0.71,0.96,0
0.03461,-0.013096,0.028355,7.3711e-05,0.0085285,0.00084838,0,0,0.051548,-0.021982,0,0.0044116,0,0,0,0.02838,4.7881e-05,0.0085285,1.7137,0.012319,0.025187,5.183e-07,0.72,0.96,0
0.035127,-0.013187,0.02852,4.3215e-05,0.0085688,0.00087029,0,0,0.051872,-0.022167,0,0.0045255,0,0,0,0.028547,1.6241e-05,0.0085688,1.746,0.012377,0.02536,5.2807e-07,0.73,0.96,0
0.035647,-0.013267,0.028685,1.5864e-05,0.0086103,0.00088114,0,0,0.052195,-0.022346,0,0.0045819,0,0,0,0.028713,-1.1591e-05,0.0086103,1.7561,0.012437,0.02553,5.3788e-07,0.74,0.96,0
0.036171,-0.013338,0.02885,-8.0388e-06,0.0086527,0.00088209,0,0,0.052514,-0.022518,0,0.0045869,0,0,0,0.028878,-3.537e-05,0.0086527,1.7466,0.012498,0.025695,5.4766e-07,0.75,0.96,0
0.036698,-0.013401,0.029014,-2.8459e-05,0.0086956,0.00087438,0,0,0.052827,-0.022683,0,0.0045468,0,0,0,0.029041,-5.5148e-05,0.0086956,1.7206,0.01256,0.025856,5.5735e-07,0.76,0.96,0
0.037228,-0.013455,0.029175,-4.5541e-05,0.0087388,0.00085926,0,0,0.053134,-0.022839,0,0.0044682,0,0,0,0.0292,-7.1166e-05,0.0087388,1.6808,0.012623,0.026011,5.6691e-07,0.77,0.96,0
0.03776,-0.013504,0.029332,-5.954e-05,0.0087818,0.00083793,0,0,0.053431,-0.022988,0,0.0043572,0,0,0,0.029356,-8.3777e-05,0.0087818,1.6298,0.012685,0.02616,5.7628e-07,0.78,0.96,0
0.038296,-0.013546,0.029485,-7.0772e-05,0.0088244,0.00081148,0,0,0.053719,-0.023128,0,0.0042197,0,0,0,0.029508,-9.3387e-05,0.0088244,1.5698,0.012746,0.026302,5.8542e-07,0.79,0.96,0
0.038835,-0.013582,0.029634,-7.9575e-05,0.0088663,0.00078092,0,0,0.053996,-0.023259,0,0.0040608,0,0,0,0.029655,-0.00010042,0.0088663,1.5029,0.012807,0.026438,5.9431e-07,0.8,0.96,0
0.039376,-0.013614,0.029777,-8.6286e-05,0.0089071,0.00074711,0,0,0.054261,-0.023383,0,0.003885,0,0,0,0.029796,-0.00010528,0.0089071,1.4308,0.012866,0.026567,6.029e-07,0.81,0.96,0
0.03992,-0.013641,0.029914,-9.1228e-05,0.0089467,0.00071081,0,0,0.054514,-0.023499,0,0.0036962,0,0,0,0.029931,-0.00010835,0.0089467,1.3551,0.012923,0.02669,6.1117e-07,0.82,0.96,0
0.040466,-0.013665,0.030044,-9.4695e-05,0.0089848,0.00067265,0,0,0.054754,-0.023607,0,0.0034978,0,0,0,0.030059,-0.00010997,0.0089848,1.2768,0.012978,0.026805,6.1909e-07,0.83,0.96,0
0.041015,-0.013685,0.030168,-9.6957e-05,0.0090212,0.00063319,0,0,0.054981,-0.023707,0,0.0032926,0,0,0,0.030181,-0.00011044,0.0090212,1.1971,0.013031,0.026914,6.2664e-07,0.84,0.96,0
0.041566,-0.013702,0.030285,-9.8248e-05,0.0090559,0.00059285,0,0,0.055194,-0.023801,0,0.0030828,0,0,0,0.030296,-0.00011003,0.0090559,1.1166,0.013081,0.027016,6.338e-07,0.85,0.96,0
0.042119,-0.013717,0.030394,-9.8775e-05,0.0090886,0.000552,0,0,0.055394,-0.023887,0,0.0028704,0,0,0,0.030404,-0.00010896,0.0090886,1.036,0.013128,0.027111,6.4056e-07,0.86,0.96,0
0.042674,-0.013729,0.030496,-9.8714e-05,0.0091193,0.00051091,0,0,0.05558,-0.023967,0,0.0026568,0,0,0,0.030505,-0.00010742,0.0091193,0.95583,0.013172,0.027199,6.469e-07,0.87,0.96,0
0.043231,-0.01374,0.030591,-9.8218e-05,0.0091479,0.00046982,0,0,0.055752,-0.02404,0,0.002443,0,0,0,0.030598,-0.00010556,0.0091479,0.87633,0.013214,0.027281,6.528e-07,0.88,0.96,0
0.043789,-0.013749,0.030678,-9.7412e-05,0.0091743,0.00042887,0,0,0.05591,-0.024106,0,0.0022301,0,0,0,0.030684,-0.00010352,0.0091743,0.79777,0.013252,0.027356,6.5826e-07,0.89,0.96,0
0.044349,-0.013756,0.030758,-9.6406e-05,0.0091985,0.00038818,0,0,0.056055,-0.024167,0,0.0020185,0,0,0,0.030763,-0.0001014,0.0091985,0.72031,0.013287,0.027424,6.6326e-07,0.9,0.96,0
0.04491,-0.013762,0.03083,-9.5286e-05,0.0092204,0.00034783,0,0,0.056185,-0.024221,0,0.0018087,0,0,0,0.030834,-9.9296e-05,0.0092204,0.64401,0.013318,0.027485,6.6781e-07,0.91,0.96,0
0.045472,-0.013767,0.030894,-9.4126e-05,0.0092401,0.00030787,0,0,0.056301,-0.024269,0,0.0016009,0,0,0,0.030897,-9.7267e-05,0.0092401,0.5689,0.013347,0.02754,6.7189e-07,0.92,0.96,0
0.046036,-0.013771,0.030951,-9.2987e-05,0.0092574,0.00026831,0,0,0.056403,-0.024311,0,0.0013952,0,0,0,0.030953,-9.5374e-05,0.0092574,0.49493,0.013372,0.027588,6.7549e-07,0.93,0.96,0
0.046601,-0.013775,0.031,-9.1916e-05,0.0092725,0.00022914,0,0,0.056492,-0.024347,0,0.0011915,0,0,0,0.031002,-9.3661e-05,0.0092725,0.42204,0.013394,0.02763,6.7863e-07,0.94,0.96,0
0.047166,-0.013777,0.031042,-9.0953e-05,0.0092852,0.00019033,0,0,0.056567,-0.024378,0,0.00098971,0,0,0,0.031043,-9.2163e-05,0.0092852,0.35012,0.013412,0.027665,6.8128e-07,0.95,0.96,0
0.047732,-0.013779,0.031076,-9.0127e-05,0.0092957,0.00015185,0,0,0.056628,-0.024403,0,0.0007896,0,0,0,0.031076,-9.0905e-05,0.0092957,0.27904,0.013427,0.027694,6.8346e-07,0.96,0.96,0
0.048298,-0.013781,0.031102,-8.9462e-05,0.0093038,0.00011363,0,0,0.056676,-0.024422,0,0.0005909,0,0,0,0.031103,-8.9908e-05,0.0093038,0.20865,0.013439,0.027716,6.8515e-07,0.97,0.96,0
0.048865,-0.013782,0.031121,-8.8975e-05,0.0093096,7.5636e-05,0,0,0.056709,-0.024436,0,0.00039331,0,0,0,0.031121,-8.9186e-05,0.0093096,0.1388,0.013447,0.027732,6.8636e-07,0.98,0.96,0
0.049433,-0.013782,0.031132,-8.8679e-05,0.0093131,3.6833e-05,0,0,0.05673,-0.024445,0,0.00019153,0,0,0,0.031132,-8.8749e-05,0.0093131,0.067569,0.013452,0.027742,6.8709e-07,0.99,0.96,0
0.049716,-0.013783,0.031136,-8.8579e-05,0.0093142,1.6984e-05,0,0,0.056737,-0.024447,0,8.8318e-05,0,0,0,0.031136,-8.8603e-05,0.0093142,0.03115,0.013454,0.027745,6.8733e-07,1,0.96,0
0.00029502,-0.00031805,0.039341,0.014683,0.016207,-0.011896,0,0,0.060149,-0.0039637,0,-0.061857,0,0,0,0.044172,0.0098518,0.016207,-22.049,0.02341,0.031637,1.4211e-06,0,0.97,0
0.00060149,-0.00064806,0.039212,0.012418,0.015489,-0.011443,0,0,0.06168,-0.007985,0,-0.059505,0,0,0,0.043506,0.0081241,0.015489,-20.402,0.022373,0.032355,1.4466e-06,0.01,0.97,0
0.0012336,-0.0013159,0.039086,0.0083803,0.01424,-0.010263,0,0,0.064599,-0.015235,0,-0.053368,0,0,0,0.042294,0.0051725,0.01424,-17.038,0.020569,0.033533,1.4741e-06,0.02,0.97,0
0.0018935,-0.0019754,0.038803,0.0055143,0.013295,-0.0086649,0,0,0.066321,-0.02023,0,-0.045057,0,0,0,0.041011,0.0033064,0.013295,-13.831,0.019204,0.033839,1.4254e-06,0.03,0.97,0
0.00256,-0.0025933,0.03798,0.0037377,0.012515,-0.007023,0,0,0.066208,-0.022822,0,-0.036519,0,0,0,0.039432,0.0022859,0.012515,-11.177,0.018078,0.033235,1.3042e-06,0.04,0.97,0
0.0032176,-0.0031599,0.036827,0.0026145,0.011832,-0.0056389,0,0,0.064986,-0.023967,0,-0.029322,0,0,0,0.03778,0.001661,0.011832,-9.1198,0.017091,0.032261,1.1666e-06,0.05,0.97,0
0.0038597,-0.0036771,0.035615,0.0018831,0.011249,-0.0045538,0,0,0.06335,-0.024352,0,-0.02368,0,0,0,0.036253,0.0012454,0.011249,-7.5401,0.016249,0.031231,1.0424e-06,0.06,0.97,0
0.0044846,-0.0041494,0.034477,0.0013926,0.010761,-0.0037177,0,0,0.061662,-0.024358,0,-0.019332,0,0,0,0.034914,0.00095624,0.010761,-6.3138,0.015544,0.030271,9.3866e-07,0.07,0.97,0
0.005093,-0.0045816,0.033458,0.0010539,0.010354,-0.0030715,0,0,0.060072,-0.024179,0,-0.015972,0,0,0,0.033764,0.00074834,0.010354,-5.3471,0.014955,0.029414,8.5403e-07,0.08,0.97,0
0.0056861,-0.0049778,0.032564,0.00081337,0.010013,-0.0025673,0,0,0.058631,-0.023919,0,-0.01335,0,0,0,0.032782,0.00059484,0.010013,-4.5738,0.014463,0.028663,7.8522e-07,0.09,0.97,0
0.0062656,-0.0053416,0.031783,0.00063842,0.0097266,-0.0021691,0,0,0.057348,-0.023629,0,-0.011279,0,0,0,0.031943,0.00047906,0.0097266,-3.947,0.014049,0.028009,7.2899e-07,0.1,0.97,0
0.006833,-0.0056758,0.031104,0.00050855,0.0094838,-0.0018509,0,0,0.056213,-0.023336,0,-0.0096245,0,0,0,0.031222,0.00039028,0.0094838,-3.4331,0.013699,0.02744,6.8265e-07,0.11,0.97,0
0.0073899,-0.0059828,0.030512,0.00041067,0.0092768,-0.0015935,0,0,0.055211,-0.023052,0,-0.0082863,0,0,0,0.030601,0.00032148,0.0092768,-3.0073,0.0134,0.026942,6.441e-07,0.12,0.97,0
0.0079373,-0.0062644,0.029994,0.00033618,0.009099,-0.0013829,0,0,0.054327,-0.022783,0,-0.0071912,0,0,0,0.030062,0.00026798,0.009099,-2.6509,0.013143,0.026506,6.1172e-07,0.13,0.97,0
0.0084764,-0.0065224,0.029539,0.00027938,0.0089456,-0.0012084,0,0,0.053544,-0.022532,0,-0.0062837,0,0,0,0.029592,0.00022658,0.0089456,-2.3492,0.012921,0.026121,5.8428e-07,0.14,0.97,0
0.0090081,-0.006758,0.029139,0.00023636,0.0088127,-0.0010616,0,0,0.052849,-0.022298,0,-0.0055204,0,0,0,0.029181,0.0001951,0.0088127,-2.0902,0.012729,0.025781,5.6082e-07,0.15,0.97,0
0.0095334,-0.0069721,0.028786,0.00020443,0.0086972,-0.00093597,0,0,0.052231,-0.022081,0,-0.0048671,0,0,0,0.028819,0.00017199,0.0086972,-1.8642,0.012563,0.025477,5.4062e-07,0.16,0.97,0
0.010053,-0.0071657,0.028474,0.00018166,0.0085966,-0.0008261,0,0,0.05168,-0.021879,0,-0.0042957,0,0,0,0.028499,0.00015612,0.0085966,-1.6627,0.012417,0.025206,5.2311e-07,0.17,0.97,0
0.010567,-0.0073394,0.028197,0.00016658,0.0085091,-0.00072753,0,0,0.051189,-0.02169,0,-0.0037831,0,0,0,0.028217,0.00014656,0.0085091,-1.4783,0.012291,0.024963,5.0787e-07,0.18,0.97,0
0.011077,-0.0074937,0.027952,0.00015797,0.008433,-0.00063654,0,0,0.05075,-0.021515,0,-0.00331,0,0,0,0.027968,0.00014247,0.008433,-1.3046,0.012181,0.024744,4.9456e-07,0.19,0.97,0
0.011582,-0.0076289,0.027736,0.00015463,0.0083672,-0.0005501,0,0,0.050359,-0.021353,0,-0.0028605,0,0,0,0.027748,0.00014291,0.0083672,-1.1362,0.012086,0.024549,4.8294e-07,0.2,0.97,0
0.012084,-0.0077453,0.027546,0.00015527,0.0083103,-0.00046584,0,0,0.050012,-0.021203,0,-0.0024224,0,0,0,0.027554,0.00014674,0.0083103,-0.96887,0.012004,0.024374,4.728e-07,0.21,0.97,0
0.012582,-0.0078432,0.027379,0.00015837,0.0082613,-0.00038219,0,0,0.049707,-0.021068,0,-0.0019874,0,0,0,0.027385,0.0001525,0.0082613,-0.7997,0.011933,0.024219,4.64e-07,0.22,0.97,0
0.013078,-0.0079228,0.027235,0.00016202,0.0082191,-0.0002985,0,0,0.049441,-0.020948,0,-0.0015522,0,0,0,0.027239,0.00015832,0.0082191,-0.62775,0.011872,0.024084,4.5644e-07,0.23,0.97,0
0.013571,-0.0079846,0.02711,0.00016392,0.0081823,-0.00021525,0,0,0.049213,-0.020848,0,-0.0011193,0,0,0,0.027112,0.00016186,0.0081823,-0.45438,0.011819,0.023969,4.5001e-07,0.24,0.97,0
0.014062,-0.0080288,0.027003,0.00016125,0.0081492,-0.00013427,0,0,0.049019,-0.020769,0,-0.00069818,0,0,0,0.027004,0.0001603,0.0081492,-0.28387,0.011771,0.023874,4.4461e-07,0.25,0.97,0
0.014551,-0.0080562,0.026909,0.00015063,0.008118,-5.8892e-05,0,0,0.048857,-0.020715,0,-0.00030624,0,0,0,0.02691,0.00015027,0.008118,-0.12383,0.011726,0.023798,4.401e-07,0.26,0.97,0
0.015039,-0.0080678,0.026826,0.00012795,0.008086,5.6952e-06,0,0,0.048723,-0.020691,0,2.9615e-05,0,0,0,0.026826,0.00012777,0.008086,0.014161,0.01168,0.023741,4.3634e-07,0.27,0.97,0
0.015526,-0.008065,0.026746,8.8441e-05,0.0080503,5.224e-05,0,0,0.048608,-0.020701,0,0.00027165,0,0,0,0.026746,8.8201e-05,0.0080503,0.11406,0.011628,0.023702,4.3311e-07,0.28,0.97,0
0.016011,-0.0080494,0.026663,2.7313e-05,0.008007,7.1279e-05,0,0,0.048505,-0.020747,0,0.00037065,0,0,0,0.026663,2.6983e-05,0.008007,0.15516,0.011566,0.023677,4.3011e-07,0.29,0.97,0
0.016496,-0.0080237,0.026567,-5.9042e-05,0.0079524,5.1533e-05,0,0,0.048398,-0.02083,0,0.00026797,0,0,0,0.026567,-5.9377e-05,0.0079524,0.11302,0.011487,0.023661,4.2693e-07,0.3,0.97,0
0.016979,-0.0079908,0.026448,-0.00017136,0.007883,-1.9978e-05,0,0,0.048269,-0.020941,0,-0.00010388,0,0,0,0.026449,-0.0001719,0.007883,-0.040289,0.011387,0.023645,4.2311e-07,0.31,0.97,0
0.017461,-0.0079545,0.026288,-0.00030892,0.0077936,-0.00015818,0,0,0.048084,-0.021067,0,-0.00082254,0,0,0,0.02629,-0.00031104,0.0077936,-0.33711,0.011257,0.023616,4.1782e-07,0.32,0.97,0
0.017941,-0.0079194,0.026053,-0.00045415,0.0076795,-0.00037705,0,0,0.04777,-0.021148,0,-0.0019606,0,0,0,0.02606,-0.00046208,0.0076795,-0.81008,0.011093,0.023533,4.0945e-07,0.33,0.97,0
0.018417,-0.0078902,0.025712,-0.00054479,0.0075501,-0.00066839,0,0,0.047221,-0.021047,0,-0.0034756,0,0,0,0.025734,-0.00056665,0.0075501,-1.4522,0.010906,0.023327,3.9599e-07,0.34,0.97,0
0.018885,-0.0078702,0.025241,-0.00054512,0.0074087,-0.00098167,0,0,0.046364,-0.02068,0,-0.0051047,0,0,0,0.025286,-0.00058978,0.0074087,-2.1734,0.010702,0.022947,3.7622e-07,0.35,0.97,0
0.019344,-0.0078603,0.02465,-0.00055496,0.0072284,-0.0012941,0,0,0.045295,-0.020237,0,-0.0067295,0,0,0,0.024728,-0.00063336,0.0072284,-2.9298,0.010441,0.022487,3.5265e-07,0.36,0.97,0
0.019791,-0.0078636,0.02401,-0.00060231,0.0070223,-0.001603,0,0,0.044168,-0.019824,0,-0.0083355,0,0,0,0.024129,-0.00072169,0.0070223,-3.7124,0.010143,0.022025,3.2903e-07,0.37,0.97,0
0.020227,-0.0078888,0.023368,-0.00043719,0.0068794,-0.0018343,0,0,0.042871,-0.019023,0,-0.0095385,0,0,0,0.023521,-0.00058954,0.0068794,-4.3892,0.0099369,0.021378,3.0352e-07,0.38,0.97,0
0.020649,-0.0079368,0.022938,-8.8854e-05,0.0068548,-0.0019419,0,0,0.040886,-0.017628,0,-0.010011,0,0,0,0.023114,-0.00026461,0.0068548,-4.8491,0.0099013,0.020756,2.8963e-07,0.39,0.97,0
0.021048,-0.0079978,0.022654,0.0001427,0.006839,-0.0018875,0,0,0.038308,-0.016191,0,-0.0095657,0,0,0,0.022833,-3.6136e-05,0.006839,-4.9357,0.0098785,0.020324,2.9099e-07,0.4,0.97,0
0.02142,-0.0080718,0.022197,0.00033119,0.0067585,-0.0016434,0,0,0.036325,-0.015161,0,-0.0082365,0,0,0,0.022341,0.00018725,0.0067585,-4.5059,0.0097623,0.019709,2.8509e-07,0.41,0.97,0
0.021777,-0.008163,0.021878,0.00056245,0.0067322,-0.0013032,0,0,0.035444,-0.014505,0,-0.0065242,0,0,0,0.021971,0.00046953,0.0067322,-3.7003,0.0097243,0.019155,2.782e-07,0.42,0.97,0
0.022129,-0.0082658,0.021898,0.00077422,0.0068018,-0.00093503,0,0,0.035203,-0.014106,0,-0.0047168,0,0,0,0.021949,0.00072355,0.0068018,-2.7104,0.0098248,0.018933,2.8119e-07,0.43,0.97,0
0.022481,-0.0083718,0.022042,0.00079254,0.0068504,-0.00056097,0,0,0.034052,-0.013525,0,-0.0029451,0,0,0,0.022066,0.00076885,0.0068504,-1.7012,0.009895,0.019002,2.8279e-07,0.44,0.97,0
0.022814,-0.0084788,0.022166,0.00056578,0.0068194,-0.0002382,0,0,0.031773,-0.012721,0,-0.001242,0,0,0,0.022179,0.00055268,0.0068194,-0.73759,0.0098502,0.019276,2.7916e-07,0.45,0.97,0
0.023127,-0.0085926,0.022139,0.00057008,0.0068127,4.7801e-05,0,0,0.031725,-0.012698,0,0.00046549,0,0,0,0.02215,0.00055938,0.0068127,0.23476,0.0098406,0.019245,2.782e-07,0.46,0.97,0
0.023459,-0.0087132,0.02196,0.00080192,0.0068286,0.00038119,0,0,0.033908,-0.013454,0,0.0021364,0,0,0,0.021976,0.00078611,0.0068286,1.2199,0.0098636,0.018909,2.7954e-07,0.47,0.97,0
0.023808,-0.008835,0.021763,0.00078738,0.0067652,0.00076488,0,0,0.034969,-0.013988,0,0.0039113,0,0,0,0.0218,0.00075044,0.0067652,2.2617,0.0097719,0.01878,2.7548e-07,0.48,0.97,0
0.024158,-0.0089592,0.021694,0.00058166,0.0066827,0.0011411,0,0,0.035126,-0.014341,0,0.0057558,0,0,0,0.021768,0.00050718,0.0066827,3.2956,0.0096527,0.018945,2.7029e-07,0.49,0.97,0
0.024511,-0.009094,0.021963,0.00035511,0.0066955,0.0014908,0,0,0.035921,-0.014955,0,0.007515,0,0,0,0.022086,0.00023228,0.0066955,4.1592,0.0096712,0.019446,2.7497e-07,0.5,0.97,0
0.024879,-0.009245,0.022376,0.00017148,0.0067643,0.0017486,0,0,0.037815,-0.015941,0,0.0088978,0,0,0,0.022534,1.3469e-05,0.0067643,4.6537,0.0097706,0.020019,2.792e-07,0.51,0.97,0
0.025273,-0.009408,0.022629,-4.9914e-05,0.0067737,0.0018242,0,0,0.040305,-0.017324,0,0.009418,0,0,0,0.022787,-0.00020824,0.0067737,4.633,0.0097843,0.020421,2.7691e-07,0.52,0.97,0
0.025688,-0.0095828,0.023034,-0.0003869,0.006794,0.0017418,0,0,0.042223,-0.01867,0,0.0090576,0,0,0,0.023173,-0.00052674,0.006794,4.2382,0.0098136,0.021019,2.8959e-07,0.53,0.97,0
0.026117,-0.0097786,0.023652,-0.0005467,0.0069315,0.0015373,0,0,0.043473,-0.019443,0,0.0079941,0,0,0,0.023764,-0.00065853,0.0069315,3.6221,0.010012,0.021649,3.1362e-07,0.54,0.97,0
0.026557,-0.0099946,0.024274,-0.00049663,0.0071331,0.0012579,0,0,0.044565,-0.019837,0,0.006541,0,0,0,0.024349,-0.00057181,0.0071331,2.8976,0.010303,0.0221,3.3596e-07,0.55,0.97,0
0.027008,-0.010222,0.024853,-0.00048281,0.0073111,0.00097674,0,0,0.045609,-0.020264,0,0.0050791,0,0,0,0.024898,-0.00052731,0.0073111,2.2004,0.01056,0.022552,3.5842e-07,0.56,0.97,0
0.027469,-0.010458,0.025321,-0.00047987,0.0074522,0.00069653,0,0,0.046458,-0.020623,0,0.003622,0,0,0,0.025344,-0.00050318,0.0074522,1.54,0.010764,0.022929,3.7746e-07,0.57,0.97,0
0.027938,-0.010701,0.025666,-0.00039039,0.0075827,0.00043856,0,0,0.047017,-0.02073,0,0.0022805,0,0,0,0.025676,-0.00040014,0.0075827,0.95913,0.010953,0.023142,3.9074e-07,0.58,0.97,0
0.02841,-0.010949,0.025914,-0.00024934,0.0076994,0.00025131,0,0,0.047358,-0.020667,0,0.0013068,0,0,0,0.025917,-0.00025286,0.0076994,0.54653,0.011121,0.023238,3.9946e-07,0.59,0.97,0
0.028885,-0.011197,0.026094,-0.00011744,0.0077929,0.00014189,0,0,0.047582,-0.020567,0,0.00073786,0,0,0,0.026095,-0.00011875,0.0077929,0.30723,0.011256,0.023289,4.0552e-07,0.6,0.97,0
0.029361,-0.01144,0.026238,-1.1645e-05,0.0078678,9.582e-05,0,0,0.047762,-0.020487,0,0.00049827,0,0,0,0.026238,-1.2309e-05,0.0078678,0.20667,0.011365,0.023331,4.1048e-07,0.61,0.97,0
0.02984,-0.011676,0.026363,6.7452e-05,0.0079291,9.7759e-05,0,0,0.047928,-0.02044,0,0.00050835,0,0,0,0.026364,6.6837e-05,0.0079291,0.2107,0.011453,0.023379,4.1506e-07,0.62,0.97,0
0.03032,-0.011901,0.026479,0.00012058,0.0079798,0.0001343,0,0,0.048097,-0.020434,0,0.00069838,0,0,0,0.02648,0.00011962,0.0079798,0.28959,0.011526,0.02344,4.197e-07,0.63,0.97,0
0.030802,-0.012114,0.026593,0.00015118,0.0080233,0.00019368,0,0,0.048282,-0.020467,0,0.0010071,0,0,0,0.026595,0.00014945,0.0080233,0.41712,0.011589,0.023519,4.2471e-07,0.64,0.97,0
0.031286,-0.012314,0.026712,0.00016382,0.0080626,0.00026583,0,0,0.048487,-0.020537,0,0.0013823,0,0,0,0.026715,0.0001608,0.0080626,0.57084,0.011646,0.023616,4.303e-07,0.65,0.97,0
0.031772,-0.012499,0.026838,0.00016301,0.0081004,0.00034278,0,0,0.048718,-0.020637,0,0.0017824,0,0,0,0.026843,0.00015821,0.0081004,0.733,0.011701,0.023732,4.3661e-07,0.66,0.97,0
0.03226,-0.012669,0.026975,0.00015262,0.0081383,0.0004185,0,0,0.048975,-0.020763,0,0.0021762,0,0,0,0.026982,0.00014567,0.0081383,0.89031,0.011755,0.023866,4.4367e-07,0.67,0.97,0
0.032751,-0.012825,0.027123,0.00013581,0.0081775,0.00048867,0,0,0.049257,-0.020908,0,0.0025411,0,0,0,0.027132,0.00012651,0.0081775,1.0335,0.011812,0.024014,4.5148e-07,0.68,0.97,0
0.033245,-0.012967,0.027281,0.00011518,0.0082189,0.00055039,0,0,0.049562,-0.02107,0,0.002862,0,0,0,0.027293,0.00010354,0.0082189,1.1565,0.011872,0.024176,4.5999e-07,0.69,0.97,0
0.033742,-0.013095,0.02745,9.2774e-05,0.0082627,0.00060196,0,0,0.049886,-0.021242,0,0.0031302,0,0,0,0.027463,7.9024e-05,0.0082627,1.2562,0.011935,0.024347,4.6912e-07,0.7,0.97,0
0.034243,-0.013211,0.027626,7.0195e-05,0.0083089,0.00064267,0,0,0.050225,-0.021421,0,0.0033419,0,0,0,0.027642,5.468e-05,0.0083089,1.3315,0.012002,0.024525,4.7877e-07,0.71,0.97,0
0.034747,-0.013314,0.027809,4.857e-05,0.0083574,0.00067251,0,0,0.050575,-0.021603,0,0.0034971,0,0,0,0.027826,3.1734e-05,0.0083574,1.3833,0.012072,0.024707,4.8883e-07,0.72,0.97,0
0.035254,-0.013406,0.027997,2.8642e-05,0.0084076,0.00069202,0,0,0.050932,-0.021785,0,0.0035985,0,0,0,0.028015,1.0963e-05,0.0084076,1.413,0.012144,0.024891,4.9921e-07,0.73,0.97,0
0.035765,-0.013489,0.028187,1.0833e-05,0.0084594,0.00070205,0,0,0.051292,-0.021966,0,0.0036506,0,0,0,0.028205,-7.2213e-06,0.0084594,1.4231,0.012219,0.025075,5.0979e-07,0.74,0.97,0
0.03628,-0.013561,0.028378,-4.6724e-06,0.008512,0.00070363,0,0,0.051652,-0.022143,0,0.0036589,0,0,0,0.028396,-2.2678e-05,0.008512,1.4162,0.012295,0.025257,5.2049e-07,0.75,0.97,0
0.036799,-0.013626,0.028568,-1.7867e-05,0.0085651,0.00069788,0,0,0.052008,-0.022316,0,0.003629,0,0,0,0.028586,-3.5459e-05,0.0085651,1.3948,0.012372,0.025436,5.3121e-07,0.76,0.97,0
0.03732,-0.013682,0.028756,-2.8858e-05,0.0086181,0.00068589,0,0,0.052358,-0.022482,0,0.0035666,0,0,0,0.028773,-4.5741e-05,0.0086181,1.3616,0.012448,0.02561,5.4188e-07,0.77,0.97,0
0.037846,-0.013732,0.02894,-3.7822e-05,0.0086706,0.00066871,0,0,0.0527,-0.022642,0,0.0034773,0,0,0,0.028956,-5.3773e-05,0.0086706,1.3189,0.012524,0.025779,5.5242e-07,0.78,0.97,0
0.038374,-0.013775,0.029119,-4.4975e-05,0.0087222,0.0006473,0,0,0.053032,-0.022795,0,0.003366,0,0,0,0.029134,-5.9835e-05,0.0087222,1.2688,0.012599,0.025943,5.6278e-07,0.79,0.97,0
0.038906,-0.013813,0.029293,-5.0543e-05,0.0087726,0.00062251,0,0,0.053352,-0.02294,0,0.0032371,0,0,0,0.029306,-6.4213e-05,0.0087726,1.2129,0.012672,0.026099,5.7288e-07,0.8,0.97,0
0.039441,-0.013846,0.02946,-5.4754e-05,0.0088214,0.00059509,0,0,0.053659,-0.023078,0,0.0030945,0,0,0,0.029472,-6.7183e-05,0.0088214,1.153,0.012742,0.026249,5.8269e-07,0.81,0.97,0
0.03998,-0.013875,0.029619,-5.782e-05,0.0088684,0.00056568,0,0,0.053952,-0.023208,0,0.0029416,0,0,0,0.02963,-6.8999e-05,0.0088684,1.0902,0.01281,0.026391,5.9215e-07,0.82,0.97,0
0.04052,-0.013899,0.029771,-5.9939e-05,0.0089134,0.00053483,0,0,0.054231,-0.023331,0,0.0027811,0,0,0,0.029781,-6.9888e-05,0.0089134,1.0255,0.012875,0.026526,6.0123e-07,0.83,0.97,0
0.041064,-0.01392,0.029915,-6.1285e-05,0.0089562,0.00050297,0,0,0.054494,-0.023445,0,0.0026154,0,0,0,0.029924,-7.0049e-05,0.0089562,0.95991,0.012937,0.026653,6.099e-07,0.84,0.97,0
0.04161,-0.013939,0.030051,-6.2014e-05,0.0089967,0.00047048,0,0,0.054741,-0.023553,0,0.0024465,0,0,0,0.030059,-6.9654e-05,0.0089967,0.89396,0.012995,0.026772,6.1813e-07,0.85,0.97,0
0.042159,-0.013954,0.030178,-6.2259e-05,0.0090347,0.00043765,0,0,0.054972,-0.023652,0,0.0022758,0,0,0,0.030184,-6.8848e-05,0.0090347,0.82819,0.01305,0.026884,6.259e-07,0.86,0.97,0
0.04271,-0.013968,0.030296,-6.2136e-05,0.0090702,0.00040471,0,0,0.055187,-0.023744,0,0.0021045,0,0,0,0.030302,-6.7753e-05,0.0090702,0.76296,0.013101,0.026987,6.3318e-07,0.87,0.97,0
0.043263,-0.013979,0.030405,-6.1741e-05,0.0091031,0.00037183,0,0,0.055386,-0.023829,0,0.0019335,0,0,0,0.03041,-6.647e-05,0.0091031,0.69854,0.013149,0.027082,6.3996e-07,0.88,0.97,0
0.043817,-0.013989,0.030506,-6.1158e-05,0.0091334,0.00033914,0,0,0.055568,-0.023906,0,0.0017635,0,0,0,0.03051,-6.5083e-05,0.0091334,0.63511,0.013193,0.02717,6.4623e-07,0.89,0.97,0
0.044374,-0.013997,0.030597,-6.0453e-05,0.0091611,0.00030673,0,0,0.055734,-0.023976,0,0.001595,0,0,0,0.030601,-6.3658e-05,0.0091611,0.57276,0.013233,0.027249,6.5197e-07,0.9,0.97,0
0.044932,-0.014003,0.03068,-5.9684e-05,0.0091861,0.00027466,0,0,0.055884,-0.024039,0,0.0014282,0,0,0,0.030683,-6.2251e-05,0.0091861,0.51154,0.013269,0.027321,6.5718e-07,0.91,0.97,0
0.045492,-0.014009,0.030754,-5.8897e-05,0.0092085,0.00024295,0,0,0.056018,-0.024095,0,0.0012633,0,0,0,0.030756,-6.0904e-05,0.0092085,0.45144,0.013301,0.027385,6.6186e-07,0.92,0.97,0
0.046053,-0.014013,0.030819,-5.8129e-05,0.0092282,0.0002116,0,0,0.056135,-0.024144,0,0.0011003,0,0,0,0.03082,-5.9653e-05,0.0092282,0.39241,0.01333,0.027441,6.6599e-07,0.93,0.97,0
0.046614,-0.014017,0.030875,-5.7412e-05,0.0092452,0.00018062,0,0,0.056237,-0.024187,0,0.00093922,0,0,0,0.030876,-5.8525e-05,0.0092452,0.33437,0.013354,0.02749,6.6958e-07,0.94,0.97,0
0.047177,-0.01402,0.030922,-5.677e-05,0.0092596,0.00014996,0,0,0.056323,-0.024223,0,0.00077981,0,0,0,0.030923,-5.7541e-05,0.0092596,0.27721,0.013375,0.027531,6.7261e-07,0.95,0.97,0
0.047741,-0.014022,0.030961,-5.6221e-05,0.0092714,0.0001196,0,0,0.056393,-0.024252,0,0.00062192,0,0,0,0.030961,-5.6716e-05,0.0092714,0.22082,0.013392,0.027564,6.751e-07,0.96,0.97,0
0.048305,-0.014024,0.030991,-5.578e-05,0.0092805,8.9479e-05,0,0,0.056447,-0.024274,0,0.00046529,0,0,0,0.030991,-5.6064e-05,0.0092805,0.16505,0.013405,0.02759,6.7703e-07,0.97,0.97,0
0.04887,-0.014025,0.031012,-5.5458e-05,0.0092871,5.9546e-05,0,0,0.056486,-0.024291,0,0.00030964,0,0,0,0.031012,-5.5592e-05,0.0092871,0.10976,0.013415,0.027609,6.7842e-07,0.98,0.97,0
0.049435,-0.014026,0.031025,-5.5262e-05,0.009291,2.8648e-05,0,0,0.056509,-0.0243,0,0.00014897,0,0,0,0.031025,-5.5307e-05,0.009291,0.052787,0.01342,0.02762,6.7925e-07,0.99,0.97,0
0.049717,-0.014026,0.031029,-5.5196e-05,0.0092923,1.2678e-05,0,0,0.056517,-0.024303,0,6.5924e-05,0,0,0,0.031029,-5.5211e-05,0.0092923,0.023353,0.013422,0.027624,6.7952e-07,1,0.97,0
0.0003327,-0.00036699,0.043721,0.014565,0.017486,-0.012926,0,0,0.068211,-0.0075942,0,-0.067213,0,0,0,0.048795,0.0094899,0.017486,-21.018,0.025257,0.036017,2.0401e-06,0,0.98,0
0.00068211,-0.00074469,0.043199,0.01119,0.016317,-0.011752,0,0,0.069893,-0.013329,0,-0.061111,0,0,0,0.047306,0.0070824,0.016317,-18.48,0.023568,0.036532,1.9922e-06,0.01,0.98,0
0.0013979,-0.0014941,0.042271,0.0062065,0.014543,-0.0093979,0,0,0.072093,-0.021676,0,-0.048869,0,0,0,0.044781,0.0036971,0.014543,-13.985,0.021007,0.036887,1.8625e-06,0.02,0.98,0
0.002124,-0.002202,0.040911,0.0037362,0.013394,-0.0071733,0,0,0.071544,-0.025111,0,-0.037301,0,0,0,0.042394,0.0022534,0.013394,-10.601,0.019347,0.035893,1.6396e-06,0.03,0.98,0
0.0028287,-0.0028395,0.038923,0.0023783,0.01239,-0.005379,0,0,0.068984,-0.026031,0,-0.027971,0,0,0,0.039791,0.0015097,0.01239,-8.1843,0.017897,0.034167,1.3775e-06,0.04,0.98,0
0.0035036,-0.0034119,0.036975,0.001585,0.011568,-0.0041033,0,0,0.066058,-0.025956,0,-0.021337,0,0,0,0.037503,0.0010568,0.011568,-6.4912,0.016709,0.032492,1.1653e-06,0.05,0.98,0
0.0041499,-0.0039286,0.035291,0.0011023,0.010918,-0.0032037,0,0,0.06337,-0.025521,0,-0.016659,0,0,0,0.035627,0.00076663,0.010918,-5.2684,0.01577,0.031055,1.0061e-06,0.06,0.98,0
0.0047711,-0.0043979,0.033883,0.00079475,0.010403,-0.0025564,0,0,0.061047,-0.024982,0,-0.013293,0,0,0,0.034105,0.00057301,0.010403,-4.3558,0.015027,0.029856,8.8697e-07,0.07,0.98,0
0.0053708,-0.0048262,0.032711,0.00059032,0.0099905,-0.0020788,0,0,0.059074,-0.02444,0,-0.01081,0,0,0,0.032863,0.00043888,0.0099905,-3.6556,0.014431,0.028859,7.9636e-07,0.08,0.98,0
0.0059525,-0.0052183,0.031732,0.00044925,0.0096543,-0.001718,0,0,0.057401,-0.023933,0,-0.0089336,0,0,0,0.031838,0.00034286,0.0096543,-3.1063,0.013945,0.028025,7.2607e-07,0.09,0.98,0
0.0065189,-0.0055781,0.030907,0.00034879,0.0093766,-0.0014398,0,0,0.055978,-0.023472,0,-0.0074868,0,0,0,0.030983,0.00027222,0.0093766,-2.6676,0.013544,0.027321,6.7046e-07,0.1,0.98,0
0.0070721,-0.0059086,0.030206,0.00027542,0.0091443,-0.0012214,0,0,0.054759,-0.023059,0,-0.0063513,0,0,0,0.030262,0.00021913,0.0091443,-2.3122,0.013208,0.026722,6.2566e-07,0.11,0.98,0
0.0076141,-0.0062121,0.029605,0.00022084,0.0089477,-0.0010473,0,0,0.053709,-0.02269,0,-0.005446,0,0,0,0.029647,0.00017867,0.0089477,-2.0207,0.012925,0.026208,5.8901e-07,0.12,0.98,0
0.0081463,-0.0064907,0.029087,0.00017974,0.0087799,-0.00090644,0,0,0.052797,-0.02236,0,-0.0047135,0,0,0,0.029119,0.00014765,0.0087799,-1.7786,0.012682,0.025763,5.5858e-07,0.13,0.98,0
0.00867,-0.0067459,0.028636,0.00014872,0.0086354,-0.00079071,0,0,0.052001,-0.022065,0,-0.0041117,0,0,0,0.028661,0.00012394,0.0086354,-1.5749,0.012473,0.025375,5.3302e-07,0.14,0.98,0
0.0091863,-0.0069789,0.028242,0.00012548,0.0085103,-0.00069399,0,0,0.051303,-0.0218,0,-0.0036087,0,0,0,0.028261,0.00010614,0.0085103,-1.4009,0.012293,0.025034,5.1133e-07,0.15,0.98,0
0.009696,-0.0071907,0.027896,0.00010846,0.0084014,-0.00061145,0,0,0.050687,-0.021562,0,-0.0031796,0,0,0,0.027911,9.328e-05,0.0084014,-1.2492,0.012135,0.024734,4.9276e-07,0.16,0.98,0
0.0102,-0.0073822,0.027592,9.658e-05,0.0083066,-0.00053922,0,0,0.050142,-0.021346,0,-0.0028039,0,0,0,0.027604,8.4644e-05,0.0083066,-1.1136,0.011998,0.024467,4.7677e-07,0.17,0.98,0
0.010699,-0.0075539,0.027324,8.9013e-05,0.008224,-0.00047406,0,0,0.049661,-0.021151,0,-0.0024651,0,0,0,0.027334,7.9688e-05,0.008224,-0.98853,0.011879,0.024231,4.6295e-07,0.18,0.98,0
0.011193,-0.0077064,0.027089,8.5081e-05,0.0081523,-0.00041329,0,0,0.049236,-0.020975,0,-0.0021491,0,0,0,0.027096,7.7912e-05,0.0081523,-0.86928,0.011776,0.024022,4.51e-07,0.19,0.98,0
0.011684,-0.0078399,0.026885,8.4137e-05,0.0080906,-0.00035469,0,0,0.048864,-0.020817,0,-0.0018444,0,0,0,0.02689,7.8786e-05,0.0080906,-0.75175,0.011686,0.023837,4.4071e-07,0.2,0.98,0
0.012171,-0.0079549,0.026708,8.5474e-05,0.0080381,-0.00029653,0,0,0.048542,-0.020677,0,-0.001542,0,0,0,0.026712,8.1666e-05,0.0080381,-0.63265,0.011611,0.023677,4.3194e-07,0.21,0.98,0
0.012654,-0.0080515,0.026559,8.8252e-05,0.0079942,-0.0002376,0,0,0.048269,-0.020555,0,-0.0012355,0,0,0,0.026562,8.5738e-05,0.0079942,-0.50975,0.011547,0.02354,4.2457e-07,0.22,0.98,0
0.013136,-0.00813,0.026436,9.1431e-05,0.0079583,-0.00017736,0,0,0.048042,-0.020454,0,-0.00092228,0,0,0,0.026438,8.9955e-05,0.0079583,-0.38213,0.011495,0.023426,4.1853e-07,0.23,0.98,0
0.013615,-0.0081908,0.026338,9.3722e-05,0.0079296,-0.00011605,0,0,0.047862,-0.020373,0,-0.00060344,0,0,0,0.026339,9.3005e-05,0.0079296,-0.25063,0.011454,0.023336,4.1376e-07,0.24,0.98,0
0.014093,-0.0082344,0.026264,9.3527e-05,0.0079072,-5.4871e-05,0,0,0.047727,-0.020316,0,-0.00028533,0,0,0,0.026264,9.3266e-05,0.0079072,-0.11823,0.011422,0.02327,4.1019e-07,0.25,0.98,0
0.01457,-0.0082613,0.026211,8.8866e-05,0.0078899,3.7764e-06,0,0,0.047634,-0.020283,0,1.9637e-05,0,0,0,0.026211,8.8763e-05,0.0078899,0.0094867,0.011397,0.023226,4.0772e-07,0.26,0.98,0
0.015046,-0.0082727,0.026175,7.7321e-05,0.0078758,5.609e-05,0,0,0.047579,-0.020276,0,0.00029167,0,0,0,0.026175,7.7133e-05,0.0078758,0.12381,0.011376,0.023204,4.062e-07,0.27,0.98,0
0.015521,-0.0082699,0.026152,5.6111e-05,0.0078624,9.6627e-05,0,0,0.047553,-0.020296,0,0.00050246,0,0,0,0.026152,5.5714e-05,0.0078624,0.21252,0.011357,0.0232,4.0541e-07,0.28,0.98,0
0.015997,-0.0082548,0.026133,2.2387e-05,0.0078465,0.00011824,0,0,0.047544,-0.020343,0,0.00061483,0,0,0,0.026133,2.1828e-05,0.0078465,0.25976,0.011334,0.02321,4.0503e-07,0.29,0.98,0
0.016472,-0.0082297,0.026108,-2.6098e-05,0.0078244,0.00011218,0,0,0.047536,-0.020411,0,0.00058331,0,0,0,0.026108,-2.6626e-05,0.0078244,0.24644,0.011302,0.023227,4.0461e-07,0.3,0.98,0
0.016948,-0.0081977,0.026062,-9.018e-05,0.0077915,6.8624e-05,0,0,0.047503,-0.020492,0,0.00035684,0,0,0,0.026062,-9.0527e-05,0.0077915,0.15125,0.011254,0.023237,4.0348e-07,0.31,0.98,0
0.017422,-0.0081622,0.025975,-0.00016539,0.0077428,-2.1675e-05,0,0,0.047403,-0.020561,0,-0.00011271,0,0,0,0.025975,-0.00016591,0.0077428,-0.046139,0.011184,0.02322,4.0065e-07,0.32,0.98,0
0.017896,-0.0081273,0.025822,-0.00023436,0.0076763,-0.00016149,0,0,0.047179,-0.020568,0,-0.00083975,0,0,0,0.025824,-0.00023658,0.0076763,-0.35359,0.011088,0.023142,3.9482e-07,0.33,0.98,0
0.018366,-0.0080966,0.025583,-0.00027146,0.0075936,-0.00033783,0,0,0.046774,-0.020449,0,-0.0017567,0,0,0,0.02559,-0.00027821,0.0075936,-0.74785,0.010969,0.022968,3.8488e-07,0.34,0.98,0
0.018831,-0.0080734,0.02526,-0.00027074,0.0074969,-0.00052635,0,0,0.046185,-0.020196,0,-0.002737,0,0,0,0.025275,-0.00028535,0.0074969,-1.182,0.010829,0.022693,3.7103e-07,0.35,0.98,0
0.01929,-0.0080602,0.024852,-0.00029433,0.0073672,-0.00071807,0,0,0.04546,-0.01992,0,-0.0037339,0,0,0,0.024877,-0.00032009,0.0073672,-1.638,0.010642,0.022368,3.5442e-07,0.36,0.98,0
0.01974,-0.0080608,0.024327,-0.00036587,0.0071884,-0.00093628,0,0,0.044561,-0.019641,0,-0.0048687,0,0,0,0.024371,-0.00040915,0.0071884,-2.1748,0.010383,0.021989,3.3464e-07,0.37,0.98,0
0.020181,-0.0080795,0.023689,-0.00031099,0.0070134,-0.001161,0,0,0.043356,-0.019043,0,-0.0060372,0,0,0,0.023756,-0.0003784,0.0070134,-2.7784,0.01013,0.021418,3.0995e-07,0.38,0.98,0
0.020607,-0.0081159,0.022984,-9.5908e-05,0.0068664,-0.0013084,0,0,0.041906,-0.018102,0,-0.0068035,0,0,0,0.023074,-0.0001856,0.0068664,-3.2626,0.0099182,0.020657,2.8197e-07,0.39,0.98,0
0.021019,-0.0081664,0.02227,4.2348e-05,0.0066936,-0.0013275,0,0,0.040498,-0.017293,0,-0.0069032,0,0,0,0.022366,-5.4192e-05,0.0066936,-3.444,0.0096685,0.019923,2.5552e-07,0.4,0.98,0
0.021417,-0.0082325,0.021613,0.00011238,0.0065176,-0.0012341,0,0,0.039248,-0.016654,0,-0.0064175,0,0,0,0.021696,2.9013e-05,0.0065176,-3.3134,0.0094143,0.019261,2.325e-07,0.41,0.98,0
0.021804,-0.0083163,0.021063,0.00026017,0.0063968,-0.0010694,0,0,0.038131,-0.015955,0,-0.0055606,0,0,0,0.021125,0.00019824,0.0063968,-2.9651,0.0092399,0.018618,2.1277e-07,0.42,0.98,0
0.02218,-0.008413,0.020635,0.00044148,0.0063229,-0.00083302,0,0,0.037211,-0.015292,0,-0.0043317,0,0,0,0.020674,0.00040216,0.0063229,-2.3733,0.0091331,0.018055,1.9704e-07,0.43,0.98,0
0.022548,-0.0085131,0.020475,0.00048321,0.0062875,-0.00056093,0,0,0.03614,-0.014751,0,-0.0029254,0,0,0,0.020495,0.00046313,0.0062875,-1.6419,0.0090819,0.017848,1.9289e-07,0.44,0.98,0
0.022905,-0.0086148,0.020588,0.000346,0.0062803,-0.00024836,0,0,0.034959,-0.01441,0,-0.0012788,0,0,0,0.020599,0.00033554,0.0062803,-0.73481,0.0090716,0.018042,2.0083e-07,0.45,0.98,0
0.023255,-0.0087284,0.020558,0.00034463,0.0062709,0.00011658,0,0,0.034906,-0.01439,0,0.00065705,0,0,0,0.020566,0.00033672,0.0062709,0.36566,0.0090579,0.018012,1.9995e-07,0.46,0.98,0
0.023611,-0.0088539,0.020387,0.00048499,0.0062615,0.00043456,0,0,0.035978,-0.01468,0,0.0022894,0,0,0,0.0204,0.0004716,0.0062615,1.2858,0.0090444,0.017757,1.9018e-07,0.47,0.98,0
0.023977,-0.0089809,0.020493,0.00045012,0.0062829,0.00071273,0,0,0.036946,-0.015165,0,0.0037062,0,0,0,0.020522,0.0004205,0.0062829,2.046,0.0090753,0.017906,1.9247e-07,0.48,0.98,0
0.02435,-0.0091107,0.02087,0.00027319,0.0063429,0.00095588,0,0,0.03777,-0.015781,0,0.0049706,0,0,0,0.02092,0.00022293,0.0063429,2.6779,0.009162,0.018417,2.0633e-07,0.49,0.98,0
0.024733,-0.0092526,0.021372,0.00012726,0.0064496,0.0011293,0,0,0.038797,-0.016438,0,0.0058722,0,0,0,0.021443,5.6106e-05,0.0064496,3.0703,0.0093161,0.019014,2.2409e-07,0.5,0.98,0
0.025126,-0.0094112,0.021983,5.8366e-05,0.0066123,0.0012328,0,0,0.039963,-0.01704,0,0.0064106,0,0,0,0.022068,-2.6668e-05,0.0066123,3.2446,0.0095511,0.019635,2.4507e-07,0.51,0.98,0
0.025532,-0.0095842,0.022657,-7.3775e-05,0.0067748,0.0012268,0,0,0.041292,-0.017806,0,0.0063796,0,0,0,0.022737,-0.00015422,0.0067748,3.1074,0.0097859,0.020333,2.6942e-07,0.52,0.98,0
0.025952,-0.0097701,0.023328,-0.00028159,0.0069138,0.001097,0,0,0.042676,-0.018708,0,0.0057046,0,0,0,0.023389,-0.00034289,0.0069138,2.6688,0.0099867,0.021063,2.9539e-07,0.53,0.98,0
0.026385,-0.0099722,0.02394,-0.00033384,0.0070819,0.00089278,0,0,0.043831,-0.019281,0,0.0046425,0,0,0,0.02398,-0.00037387,0.0070819,2.1092,0.010229,0.021613,3.1842e-07,0.54,0.98,0
0.026829,-0.010191,0.024448,-0.00026148,0.0072559,0.0006961,0,0,0.044699,-0.019545,0,0.0036197,0,0,0,0.024472,-0.00028602,0.0072559,1.6154,0.010481,0.02198,3.3698e-07,0.55,0.98,0
0.027279,-0.010421,0.02485,-0.00023604,0.0073841,0.00052686,0,0,0.04541,-0.019812,0,0.0027397,0,0,0,0.024864,-0.00025068,0.0073841,1.2036,0.010666,0.0223,3.5279e-07,0.56,0.98,0
0.027737,-0.01066,0.025175,-0.00023522,0.0074819,0.00036198,0,0,0.046002,-0.020064,0,0.0018823,0,0,0,0.025182,-0.00024264,0.0074819,0.81499,0.010807,0.022577,3.663e-07,0.57,0.98,0
0.028199,-0.010905,0.025425,-0.00019842,0.007568,0.00020963,0,0,0.046429,-0.020193,0,0.0010901,0,0,0,0.025428,-0.00020134,0.007568,0.46693,0.010932,0.022762,3.7645e-07,0.58,0.98,0
0.028665,-0.011153,0.025599,-0.00013144,0.0076404,9.298e-05,0,0,0.046694,-0.020207,0,0.0004835,0,0,0,0.0256,-0.0001323,0.0076404,0.20536,0.011036,0.02286,3.8306e-07,0.59,0.98,0
0.029133,-0.0114,0.025717,-5.926e-05,0.0076973,2.4101e-05,0,0,0.046851,-0.020167,0,0.00012532,0,0,0,0.025717,-5.9487e-05,0.0076973,0.052202,0.011118,0.022905,3.8719e-07,0.6,0.98,0
0.029602,-0.011643,0.025801,1.2441e-06,0.0077407,-2.8481e-07,0,0,0.046957,-0.020123,0,-1.4809e-06,0,0,0,0.025801,1.1429e-06,0.0077407,-0.0018245,0.011181,0.022932,3.9005e-07,0.61,0.98,0
0.030072,-0.011879,0.025871,4.5775e-05,0.0077752,1.0254e-05,0,0,0.04705,-0.020096,0,5.332e-05,0,0,0,0.025872,4.5674e-05,0.0077752,0.021509,0.011231,0.022959,3.9256e-07,0.62,0.98,0
0.030543,-0.012104,0.025941,7.5163e-05,0.0078049,4.5616e-05,0,0,0.047154,-0.020097,0,0.0002372,0,0,0,0.025941,7.4949e-05,0.0078049,0.099534,0.011274,0.022997,3.9531e-07,0.63,0.98,0
0.031015,-0.012317,0.026019,9.1571e-05,0.0078332,9.6752e-05,0,0,0.047284,-0.020128,0,0.00050311,0,0,0,0.02602,9.1021e-05,0.0078332,0.21184,0.011315,0.023054,3.9868e-07,0.64,0.98,0
0.031489,-0.012517,0.026112,9.7719e-05,0.0078628,0.00015613,0,0,0.047447,-0.020189,0,0.00081186,0,0,0,0.026113,9.6528e-05,0.0078628,0.34134,0.011357,0.023132,4.0292e-07,0.65,0.98,0
0.031964,-0.012703,0.026222,9.6248e-05,0.0078954,0.00021783,0,0,0.047649,-0.020278,0,0.0011327,0,0,0,0.026224,9.4106e-05,0.0078954,0.47459,0.011405,0.023233,4.0816e-07,0.66,0.98,0
0.032442,-0.012875,0.026352,8.9439e-05,0.0079323,0.0002775,0,0,0.04789,-0.020391,0,0.001443,0,0,0,0.026355,8.6102e-05,0.0079323,0.6017,0.011458,0.023356,4.1446e-07,0.67,0.98,0
0.032922,-0.013032,0.026501,7.9145e-05,0.007974,0.00033209,0,0,0.04817,-0.020527,0,0.0017269,0,0,0,0.026505,7.4484e-05,0.007974,0.71594,0.011518,0.023499,4.2181e-07,0.68,0.98,0
0.033405,-0.013176,0.026668,6.6842e-05,0.0080204,0.00037967,0,0,0.048483,-0.020679,0,0.0019743,0,0,0,0.026674,6.0855e-05,0.0080204,0.81318,0.011585,0.02366,4.3015e-07,0.69,0.98,0
0.033892,-0.013306,0.026851,5.3683e-05,0.0080713,0.00041917,0,0,0.048826,-0.020846,0,0.0021797,0,0,0,0.026858,4.6482e-05,0.0080713,0.89141,0.011659,0.023835,4.3936e-07,0.7,0.98,0
0.034382,-0.013423,0.027047,4.0537e-05,0.0081262,0.00045021,0,0,0.049194,-0.021023,0,0.0023411,0,0,0,0.027055,3.2323e-05,0.0081262,0.9502,0.011738,0.024021,4.4935e-07,0.71,0.98,0
0.034876,-0.013528,0.027253,2.8026e-05,0.0081844,0.00047291,0,0,0.049579,-0.021207,0,0.0024591,0,0,0,0.027262,1.9051e-05,0.0081844,0.99033,0.011822,0.024216,4.5997e-07,0.72,0.98,0
0.035374,-0.013622,0.027467,1.6552e-05,0.0082451,0.00048776,0,0,0.049977,-0.021394,0,0.0025364,0,0,0,0.027476,7.0904e-06,0.0082451,1.0133,0.01191,0.024416,4.7109e-07,0.73,0.98,0
0.035875,-0.013706,0.027685,6.3441e-06,0.0083075,0.00049548,0,0,0.050382,-0.021583,0,0.0025765,0,0,0,0.027695,-3.3384e-06,0.0083075,1.0211,0.012,0.024618,4.8258e-07,0.74,0.98,0
0.036381,-0.013781,0.027905,-2.507e-06,0.0083709,0.0004969,0,0,0.05079,-0.021771,0,0.0025839,0,0,0,0.027915,-1.2169e-05,0.0083709,1.0159,0.012091,0.024821,4.9432e-07,0.75,0.98,0
0.036891,-0.013847,0.028125,-1.0007e-05,0.0084346,0.00049287,0,0,0.051196,-0.021956,0,0.0025629,0,0,0,0.028135,-1.9442e-05,0.0084346,0.99983,0.012183,0.025022,5.0618e-07,0.76,0.98,0
0.037405,-0.013905,0.028342,-1.6224e-05,0.0084979,0.00048426,0,0,0.051596,-0.022137,0,0.0025182,0,0,0,0.028352,-2.5269e-05,0.0084979,0.97489,0.012275,0.02522,5.1805e-07,0.77,0.98,0
0.037923,-0.013956,0.028556,-2.127e-05,0.0085603,0.00047187,0,0,0.051988,-0.022312,0,0.0024537,0,0,0,0.028564,-2.98e-05,0.0085603,0.94295,0.012365,0.025412,5.2985e-07,0.78,0.98,0
0.038445,-0.014001,0.028763,-2.5272e-05,0.0086213,0.00045641,0,0,0.052368,-0.022481,0,0.0023734,0,0,0,0.028771,-3.3202e-05,0.0086213,0.90561,0.012453,0.025599,5.4147e-07,0.79,0.98,0
0.03897,-0.014041,0.028963,-2.8366e-05,0.0086805,0.00043855,0,0,0.052735,-0.022643,0,0.0022805,0,0,0,0.028971,-3.5644e-05,0.0086805,0.86428,0.012538,0.025778,5.5285e-07,0.8,0.98,0
0.039499,-0.014075,0.029156,-3.0686e-05,0.0087375,0.00041883,0,0,0.053087,-0.022797,0,0.0021779,0,0,0,0.029162,-3.7287e-05,0.0087375,0.8201,0.012621,0.02595,5.6391e-07,0.81,0.98,0
0.040032,-0.014105,0.02934,-3.2356e-05,0.0087922,0.00039773,0,0,0.053423,-0.022944,0,0.0020682,0,0,0,0.029346,-3.8277e-05,0.0087922,0.77405,0.0127,0.026113,5.746e-07,0.82,0.98,0
0.040568,-0.014131,0.029514,-3.3489e-05,0.0088442,0.00037565,0,0,0.053742,-0.023082,0,0.0019534,0,0,0,0.029519,-3.8746e-05,0.0088442,0.72688,0.012775,0.026268,5.8487e-07,0.83,0.98,0
0.041107,-0.014154,0.029679,-3.4189e-05,0.0088935,0.00035292,0,0,0.054043,-0.023212,0,0.0018352,0,0,0,0.029684,-3.8808e-05,0.0088935,0.67921,0.012846,0.026415,5.9467e-07,0.84,0.98,0
0.041649,-0.014173,0.029834,-3.4544e-05,0.0089399,0.00032979,0,0,0.054325,-0.023333,0,0.0017149,0,0,0,0.029838,-3.856e-05,0.0089399,0.63152,0.012913,0.026552,6.0397e-07,0.85,0.98,0
0.042193,-0.01419,0.029979,-3.463e-05,0.0089833,0.00030648,0,0,0.054589,-0.023447,0,0.0015937,0,0,0,0.029982,-3.8085e-05,0.0089833,0.58414,0.012976,0.026679,6.1274e-07,0.86,0.98,0
0.042741,-0.014204,0.030113,-3.4512e-05,0.0090236,0.00028315,0,0,0.054833,-0.023551,0,0.0014724,0,0,0,0.030116,-3.7452e-05,0.0090236,0.53735,0.013034,0.026798,6.2096e-07,0.87,0.98,0
0.04329,-0.014216,0.030237,-3.4247e-05,0.009061,0.00025991,0,0,0.055059,-0.023648,0,0.0013516,0,0,0,0.03024,-3.6717e-05,0.009061,0.49131,0.013088,0.026907,6.2861e-07,0.88,0.98,0
0.043842,-0.014227,0.030351,-3.388e-05,0.0090952,0.00023687,0,0,0.055266,-0.023736,0,0.0012317,0,0,0,0.030353,-3.5926e-05,0.0090952,0.44613,0.013137,0.027007,6.3568e-07,0.89,0.98,0
0.044395,-0.014236,0.030455,-3.3449e-05,0.0091263,0.00021407,0,0,0.055454,-0.023815,0,0.0011132,0,0,0,0.030456,-3.5117e-05,0.0091263,0.40187,0.013183,0.027098,6.4215e-07,0.9,0.98,0
0.044951,-0.014243,0.030548,-3.2987e-05,0.0091545,0.00019155,0,0,0.055623,-0.023887,0,0.00099607,0,0,0,0.030549,-3.432e-05,0.0091545,0.35854,0.013223,0.02718,6.4802e-07,0.91,0.98,0
0.045508,-0.014249,0.030631,-3.2519e-05,0.0091795,0.00016933,0,0,0.055774,-0.023951,0,0.00088051,0,0,0,0.030632,-3.356e-05,0.0091795,0.31612,0.013259,0.027253,6.5327e-07,0.92,0.98,0
0.046066,-0.014254,0.030704,-3.2066e-05,0.0092015,0.0001474,0,0,0.055906,-0.024007,0,0.00076649,0,0,0,0.030705,-3.2855e-05,0.0092015,0.27455,0.013291,0.027317,6.5792e-07,0.93,0.98,0
0.046626,-0.014258,0.030767,-3.1645e-05,0.0092206,0.00012576,0,0,0.05602,-0.024056,0,0.00065394,0,0,0,0.030767,-3.222e-05,0.0092206,0.23377,0.013319,0.027372,6.6194e-07,0.94,0.98,0
0.047187,-0.014262,0.03082,-3.1269e-05,0.0092366,0.00010437,0,0,0.056117,-0.024097,0,0.00054273,0,0,0,0.03082,-3.1667e-05,0.0092366,0.1937,0.013342,0.027419,6.6535e-07,0.95,0.98,0
0.047748,-0.014264,0.030863,-3.0949e-05,0.0092497,8.321e-05,0,0,0.056196,-0.02413,0,0.00043269,0,0,0,0.030864,-3.1204e-05,0.0092497,0.15422,0.013361,0.027457,6.6814e-07,0.96,0.98,0
0.048311,-0.014266,0.030897,-3.0692e-05,0.0092599,6.2237e-05,0,0,0.056257,-0.024156,0,0.00032363,0,0,0,0.030897,-3.0838e-05,0.0092599,0.11523,0.013375,0.027487,6.7031e-07,0.97,0.98,0
0.048873,-0.014268,0.030921,-3.0505e-05,0.0092672,4.1409e-05,0,0,0.0563,-0.024174,0,0.00021533,0,0,0,0.030921,-3.0574e-05,0.0092672,0.076608,0.013386,0.027508,6.7186e-07,0.98,0.98,0
0.049437,-0.014268,0.030935,-3.0391e-05,0.0092715,1.9422e-05,0,0,0.056326,-0.024185,0,0.00010099,0,0,0,0.030935,-3.0414e-05,0.0092715,0.035913,0.013392,0.02752,6.7279e-07,0.99,0.98,0
0.049718,-0.014269,0.03094,-3.0353e-05,0.0092729,7.8177e-06,0,0,0.056335,-0.024189,0,4.0652e-05,0,0,0,0.03094,-3.0361e-05,0.0092729,0.014449,0.013394,0.027524,6.731e-07,1,0.98,0
0.00044014,-0.00046993,0.054769,0.015826,0.021179,-0.014461,0,0,0.087336,-0.013916,0,-0.075197,0,0,0,0.060053,0.010542,0.021179,-18.66,0.030591,0.045228,4.4699e-06,0,0.99,0
0.00087336,-0.00091465,0.051531,0.010395,0.018578,-0.011643,0,0,0.085678,-0.021276,0,-0.060545,0,0,0,0.055162,0.0067636,0.018578,-14.998,0.026834,0.043773,3.6444e-06,0.01,0.99,0
0.0017136,-0.0017494,0.046141,0.0038481,0.014997,-0.0072356,0,0,0.080976,-0.028987,0,-0.037625,0,0,0,0.047589,0.0024006,0.014997,-9.4978,0.021662,0.040395,2.4027e-06,0.02,0.99,0
0.0024929,-0.0024776,0.042011,0.0020744,0.013226,-0.0047292,0,0,0.074843,-0.028993,0,-0.024592,0,0,0,0.042699,0.0013869,0.013226,-6.5971,0.019104,0.036849,1.7325e-06,0.03,0.99,0
0.0032104,-0.0031139,0.038587,0.0011193,0.011912,-0.0032679,0,0,0.069356,-0.028061,0,-0.016993,0,0,0,0.038943,0.00076402,0.011912,-4.8718,0.017206,0.034005,1.3266e-06,0.04,0.99,0
0.00388,-0.003679,0.036058,0.00066194,0.011016,-0.0023808,0,0,0.065109,-0.02692,0,-0.01238,0,0,0,0.036259,0.00046068,0.011016,-3.7668,0.015912,0.031861,1.0764e-06,0.05,0.99,0
0.0045126,-0.0041875,0.034142,0.00040934,0.010365,-0.0018094,0,0,0.061819,-0.025886,0,-0.0094088,0,0,0,0.034264,0.00028688,0.010365,-3.0103,0.014972,0.030226,9.1118e-07,0.06,0.99,0
0.0051164,-0.0046491,0.032655,0.00026172,0.0098751,-0.0014196,0,0,0.059229,-0.024995,0,-0.007382,0,0,0,0.032734,0.00018304,0.0098751,-2.4636,0.014264,0.028949,7.9593e-07,0.07,0.99,0
0.0056972,-0.0050704,0.031473,0.00016955,0.0094927,-0.0011416,0,0,0.057149,-0.02424,0,-0.0059366,0,0,0,0.031526,0.00011681,0.0094927,-2.053,0.013712,0.027928,7.1185e-07,0.08,0.99,0
0.0062593,-0.0054565,0.030513,0.00010921,0.0091866,-0.00093641,0,0,0.055448,-0.023601,0,-0.0048693,0,0,0,0.030549,7.2645e-05,0.0091866,-1.7356,0.01327,0.027095,6.4825e-07,0.09,0.99,0
0.0068061,-0.0058111,0.029719,6.8125e-05,0.0089362,-0.00078072,0,0,0.054036,-0.023057,0,-0.0040597,0,0,0,0.029745,4.2054e-05,0.0089362,-1.4851,0.012908,0.026405,5.9873e-07,0.1,0.99,0
0.0073401,-0.006137,0.029054,3.9306e-05,0.0087279,-0.00066004,0,0,0.052847,-0.02259,0,-0.0034322,0,0,0,0.029073,2.0262e-05,0.0087279,-1.284,0.012607,0.025824,5.5925e-07,0.11,0.99,0
0.0078631,-0.0064366,0.028488,1.8642e-05,0.008552,-0.00056477,0,0,0.051834,-0.022187,0,-0.0029368,0,0,0,0.028502,4.4359e-06,0.008552,-1.1204,0.012353,0.02533,5.2713e-07,0.12,0.99,0
0.0083767,-0.0067116,0.028002,3.6315e-06,0.0084018,-0.0004883,0,0,0.050961,-0.021835,0,-0.0025392,0,0,0,0.028013,-7.1607e-06,0.0084018,-0.98548,0.012136,0.024904,5.0055e-07,0.13,0.99,0
0.0088823,-0.0069637,0.027581,-7.2927e-06,0.0082721,-0.00042587,0,0,0.050203,-0.021526,0,-0.0022145,0,0,0,0.027589,-1.5617e-05,0.0082721,-0.87264,0.011949,0.024535,4.7825e-07,0.14,0.99,0
0.0093808,-0.007194,0.027213,-1.5131e-05,0.0081594,-0.00037392,0,0,0.049539,-0.021254,0,-0.0019444,0,0,0,0.027219,-2.1628e-05,0.0081594,-0.77659,0.011786,0.024211,4.5932e-07,0.15,0.99,0
0.0098731,-0.0074034,0.02689,-2.0533e-05,0.0080607,-0.00032964,0,0,0.048955,-0.021011,0,-0.0017141,0,0,0,0.026895,-2.5639e-05,0.0080607,-0.69293,0.011643,0.023925,4.431e-07,0.16,0.99,0
0.01036,-0.0075927,0.026605,-2.3923e-05,0.0079743,-0.00029081,0,0,0.04844,-0.020795,0,-0.0015122,0,0,0,0.026609,-2.7938e-05,0.0079743,-0.6179,0.011518,0.023673,4.2912e-07,0.17,0.99,0
0.010842,-0.0077624,0.026354,-2.5592e-05,0.0078987,-0.00025554,0,0,0.047985,-0.020603,0,-0.0013288,0,0,0,0.026358,-2.8725e-05,0.0078987,-0.54818,0.011409,0.02345,4.1706e-07,0.18,0.99,0
0.01132,-0.0079132,0.026136,-2.5756e-05,0.0078329,-0.00022226,0,0,0.047587,-0.020433,0,-0.0011558,0,0,0,0.026138,-2.8153e-05,0.0078329,-0.48084,0.011314,0.023254,4.0669e-07,0.19,0.99,0
0.011794,-0.0080452,0.025947,-2.4604e-05,0.0077767,-0.00018966,0,0,0.047242,-0.020283,0,-0.00098622,0,0,0,0.025949,-2.6373e-05,0.0077767,-0.41334,0.011233,0.023085,3.9786e-07,0.2,0.99,0
0.012264,-0.0081588,0.025788,-2.2335e-05,0.0077296,-0.00015667,0,0,0.046951,-0.020155,0,-0.00081471,0,0,0,0.025789,-2.3567e-05,0.0077296,-0.34359,0.011165,0.022941,3.905e-07,0.21,0.99,0
0.012733,-0.0082543,0.025659,-1.9196e-05,0.0076919,-0.00012256,0,0,0.046714,-0.020049,0,-0.00063731,0,0,0,0.02566,-1.9977e-05,0.0076919,-0.27012,0.011111,0.022823,3.8456e-07,0.22,0.99,0
0.013199,-0.0083319,0.025561,-1.5512e-05,0.0076636,-8.6927e-05,0,0,0.046533,-0.019966,0,-0.00045202,0,0,0,0.025561,-1.5935e-05,0.0076636,-0.19225,0.01107,0.022732,3.8005e-07,0.23,0.99,0
0.013663,-0.008392,0.025494,-1.1713e-05,0.0076448,-4.9852e-05,0,0,0.046409,-0.019907,0,-0.00025923,0,0,0,0.025495,-1.1888e-05,0.0076448,-0.11036,0.011043,0.02267,3.7698e-07,0.24,0.99,0
0.014127,-0.0084351,0.025461,-8.3788e-06,0.0076356,-1.1988e-05,0,0,0.046345,-0.019874,0,-6.2338e-05,0,0,0,0.025461,-8.4313e-06,0.0076356,-0.026165,0.011029,0.022637,3.7535e-07,0.25,0.99,0
0.01459,-0.0084619,0.025458,-6.291e-06,0.0076357,2.5278e-05,0,0,0.046339,-0.019869,0,0.00013144,0,0,0,0.025459,-6.3482e-06,0.0076357,0.056961,0.011029,0.022633,3.7516e-07,0.26,0.99,0
0.015054,-0.0084734,0.025486,-6.4747e-06,0.007644,5.9653e-05,0,0,0.04639,-0.019891,0,0.00031019,0,0,0,0.025487,-6.6438e-06,0.007644,0.13361,0.011041,0.022658,3.7633e-07,0.27,0.99,0
0.015518,-0.0084709,0.02554,-1.0213e-05,0.0076588,8.777e-05,0,0,0.04649,-0.01994,0,0.0004564,0,0,0,0.02554,-1.0546e-05,0.0076588,0.19606,0.011063,0.022709,3.7867e-07,0.28,0.99,0
0.015983,-0.0084563,0.02561,-1.8956e-05,0.0076775,0.00010509,0,0,0.046626,-0.020011,0,0.00054648,0,0,0,0.025611,-1.9419e-05,0.0076775,0.23416,0.01109,0.022779,3.8189e-07,0.29,0.99,0
0.016451,-0.0084319,0.025687,-3.4022e-05,0.0076958,0.00010605,0,0,0.046776,-0.020097,0,0.00055146,0,0,0,0.025687,-3.4488e-05,0.0076958,0.23572,0.011116,0.022859,3.8546e-07,0.3,0.99,0
0.016919,-0.0084007,0.025751,-5.5454e-05,0.0077085,8.4765e-05,0,0,0.046909,-0.020186,0,0.00044078,0,0,0,0.025751,-5.5774e-05,0.0077085,0.18808,0.011135,0.022932,3.8861e-07,0.31,0.99,0
0.017389,-0.0083658,0.025781,-7.9534e-05,0.0077105,3.7062e-05,0,0,0.046984,-0.020254,0,0.00019273,0,0,0,0.025781,-7.9701e-05,0.0077105,0.082314,0.011137,0.022979,3.9032e-07,0.32,0.99,0
0.017859,-0.0083308,0.025756,-9.76e-05,0.0076976,-3.612e-05,0,0,0.046952,-0.020267,0,-0.00018782,0,0,0,0.025757,-9.7963e-05,0.0076976,-0.079981,0.011119,0.022971,3.8948e-07,0.33,0.99,0
0.018328,-0.0082992,0.02566,-0.00010135,0.0076676,-0.00012739,0,0,0.04678,-0.020199,0,-0.00066241,0,0,0,0.025661,-0.00010267,0.0076676,-0.28415,0.011075,0.02289,3.8528e-07,0.34,0.99,0
0.018794,-0.0082741,0.02548,-9.9715e-05,0.0076142,-0.0002286,0,0,0.046452,-0.020056,0,-0.0011887,0,0,0,0.025484,-0.00010301,0.0076142,-0.51448,0.010998,0.022733,3.7742e-07,0.35,0.99,0
0.019257,-0.0082587,0.0252,-0.00011501,0.0075256,-0.00034236,0,0,0.045955,-0.019866,0,-0.0017803,0,0,0,0.025207,-0.0001218,0.0075256,-0.77956,0.01087,0.022502,3.6569e-07,0.36,0.99,0
0.019713,-0.0082564,0.024806,-0.00012829,0.0074034,-0.00047193,0,0,0.045248,-0.019582,0,-0.002454,0,0,0,0.024819,-0.00014085,0.0074034,-1.0926,0.010694,0.022172,3.4951e-07,0.37,0.99,0
0.020162,-0.0082696,0.024317,-7.379e-05,0.0072729,-0.00059097,0,0,0.044314,-0.019101,0,-0.003073,0,0,0,0.024336,-9.3433e-05,0.0072729,-1.4014,0.010505,0.021705,3.2909e-07,0.38,0.99,0
0.0206,-0.0082988,0.023762,2.0238e-05,0.0071348,-0.00065694,0,0,0.043232,-0.018498,0,-0.0034161,0,0,0,0.023787,-4.2087e-06,0.0071348,-1.6025,0.010306,0.021146,3.063e-07,0.39,0.99,0
0.021026,-0.0083437,0.023159,4.6254e-05,0.0069615,-0.00067429,0,0,0.042113,-0.01798,0,-0.0035063,0,0,0,0.023185,2.0397e-05,0.0069615,-1.6908,0.010056,0.020591,2.8344e-07,0.4,0.99,0
0.021442,-0.0084048,0.022546,4.7748e-05,0.0067781,-0.00067362,0,0,0.040997,-0.017499,0,-0.0035029,0,0,0,0.022572,2.1826e-05,0.0067781,-1.7351,0.0097907,0.020045,2.6158e-07,0.41,0.99,0
0.021846,-0.0084821,0.021968,0.00013103,0.0066298,-0.00063289,0,0,0.03988,-0.016897,0,-0.003291,0,0,0,0.021992,0.00010765,0.0066298,-1.6778,0.0095763,0.019461,2.4091e-07,0.42,0.99,0
0.02224,-0.0085717,0.02146,0.00026996,0.0065189,-0.00050693,0,0,0.038846,-0.016247,0,-0.002636,0,0,0,0.021476,0.0002536,0.0065189,-1.3847,0.0094163,0.018886,2.2272e-07,0.43,0.99,0
0.022623,-0.0086673,0.02109,0.00032086,0.0064233,-0.00032311,0,0,0.038134,-0.015866,0,-0.0016802,0,0,0,0.021099,0.00031252,0.0064233,-0.90858,0.0092781,0.018504,2.1048e-07,0.44,0.99,0
0.023002,-0.0087686,0.020899,0.00024178,0.0063423,-0.00013174,0,0,0.037848,-0.015861,0,-0.00068503,0,0,0,0.020903,0.000238,0.0063423,-0.37677,0.0091611,0.018389,2.054e-07,0.45,0.99,0
0.02338,-0.008882,0.020867,0.00023955,0.0063319,5.924e-05,0,0,0.037791,-0.01584,0,0.00030805,0,0,0,0.020869,0.00023679,0.0063319,0.17283,0.009146,0.01836,2.0442e-07,0.46,0.99,0
0.023758,-0.0090074,0.020994,0.00031958,0.006394,0.00025026,0,0,0.037959,-0.015793,0,0.0013014,0,0,0,0.020999,0.00031393,0.006394,0.70822,0.0092357,0.018414,2.0746e-07,0.47,0.99,0
0.024139,-0.0091383,0.0213,0.00027319,0.006472,0.00043599,0,0,0.038553,-0.016117,0,0.0022671,0,0,0,0.021313,0.00026068,0.006472,1.2,0.0093484,0.018735,2.1752e-07,0.48,0.99,0
0.024529,-0.0092748,0.021748,0.000136,0.0065651,0.00056661,0,0,0.039475,-0.016716,0,0.0029464,0,0,0,0.021767,0.00011698,0.0065651,1.5176,0.009483,0.019253,2.3342e-07,0.49,0.99,0
0.024929,-0.0094227,0.02227,5.2634e-05,0.0066967,0.00061334,0,0,0.04049,-0.017275,0,0.0031893,0,0,0,0.022292,3.0828e-05,0.0066967,1.5996,0.009673,0.019789,2.5178e-07,0.5,0.99,0
0.025339,-0.0095858,0.022832,5.0766e-05,0.0068648,0.00062046,0,0,0.041514,-0.017717,0,0.0032264,0,0,0,0.022854,2.8483e-05,0.0068648,1.5781,0.0099158,0.020291,2.7132e-07,0.51,0.99,0
0.025759,-0.0097642,0.023391,2.6591e-05,0.0070254,0.00061065,0,0,0.042552,-0.018197,0,0.0031754,0,0,0,0.023413,5.0486e-06,0.0070254,1.5131,0.010148,0.020806,2.919e-07,0.52,0.99,0
0.02619,-0.009957,0.023909,-6.4295e-05,0.0071535,0.00055451,0,0,0.043565,-0.018766,0,0.0028834,0,0,0,0.023927,-8.193e-05,0.0071535,1.3371,0.010333,0.021332,3.1257e-07,0.53,0.99,0
0.02663,-0.010164,0.024372,-0.00011707,0.0072765,0.00044741,0,0,0.044448,-0.019223,0,0.0023265,0,0,0,0.024383,-0.00012855,0.0072765,1.054,0.01051,0.021775,3.3126e-07,0.54,0.99,0
0.027079,-0.010386,0.02475,-0.00010324,0.007394,0.00033084,0,0,0.045125,-0.019493,0,0.0017204,0,0,0,0.024756,-0.00010966,0.007394,0.7668,0.01068,0.022092,3.4623e-07,0.55,0.99,0
0.027533,-0.010618,0.025025,-8.7224e-05,0.0074814,0.00023063,0,0,0.045614,-0.019678,0,0.0011993,0,0,0,0.025029,-9.0548e-05,0.0074814,0.52825,0.010806,0.022318,3.5738e-07,0.56,0.99,0
0.027991,-0.010859,0.025212,-8.7929e-05,0.0075373,0.00014346,0,0,0.045955,-0.019826,0,0.00074601,0,0,0,0.025214,-8.9433e-05,0.0075373,0.32549,0.010887,0.022482,3.653e-07,0.57,0.99,0
0.028452,-0.011105,0.025329,-8.3672e-05,0.0075735,6.6461e-05,0,0,0.046163,-0.019909,0,0.0003456,0,0,0,0.025329,-8.4172e-05,0.0075735,0.14964,0.010939,0.02258,3.7022e-07,0.58,0.99,0
0.028914,-0.011353,0.025385,-6.5679e-05,0.0075959,7.187e-06,0,0,0.046253,-0.01992,0,3.7373e-05,0,0,0,0.025386,-6.5799e-05,0.0075959,0.015791,0.010972,0.022616,3.7244e-07,0.59,0.99,0
0.029377,-0.0116,0.025399,-4.2012e-05,0.007607,-2.7501e-05,0,0,0.046258,-0.019887,0,-0.00014301,0,0,0,0.025399,-4.2071e-05,0.007607,-0.062193,0.010988,0.022608,3.7269e-07,0.6,0.99,0
0.02984,-0.011843,0.025389,-2.1083e-05,0.0076104,-3.702e-05,0,0,0.046225,-0.019842,0,-0.00019251,0,0,0,0.025389,-2.1145e-05,0.0076104,-0.083608,0.010993,0.022583,3.72e-07,0.61,0.99,0
0.030302,-0.012078,0.025377,-6.4944e-06,0.0076111,-2.5749e-05,0,0,0.046191,-0.019806,0,-0.00013389,0,0,0,0.025377,-6.5362e-06,0.0076111,-0.058326,0.010994,0.022561,3.713e-07,0.62,0.99,0
0.030763,-0.012303,0.025378,1.8084e-06,0.007614,2.839e-07,0,0,0.046187,-0.019792,0,1.4764e-06,0,0,0,0.025378,1.7718e-06,0.007614,0.00011968,0.010998,0.022555,3.7129e-07,0.63,0.99,0
0.031225,-0.012517,0.025404,5.1003e-06,0.0076227,3.5352e-05,0,0,0.046231,-0.019806,0,0.00018383,0,0,0,0.025404,4.9819e-06,0.0076227,0.078702,0.011011,0.022576,3.7242e-07,0.64,0.99,0
0.031688,-0.012717,0.02546,4.7712e-06,0.0076393,7.472e-05,0,0,0.046333,-0.01985,0,0.00038855,0,0,0,0.02546,4.4358e-06,0.0076393,0.16649,0.011035,0.022626,3.7495e-07,0.65,0.99,0
0.032152,-0.012904,0.025549,2.0409e-06,0.0076652,0.00011477,0,0,0.046497,-0.019924,0,0.00059682,0,0,0,0.025549,1.3469e-06,0.0076652,0.25504,0.011072,0.022708,3.7898e-07,0.66,0.99,0
0.032618,-0.013077,0.02567,-2.1236e-06,0.0077004,0.00015291,0,0,0.046722,-0.020027,0,0.00079515,0,0,0,0.025671,-3.2875e-06,0.0077004,0.33828,0.011123,0.02282,3.8453e-07,0.67,0.99,0
0.033086,-0.013236,0.025823,-6.9944e-06,0.0077447,0.0001874,0,0,0.047003,-0.020154,0,0.00097447,0,0,0,0.025824,-8.6893e-06,0.0077447,0.41219,0.011187,0.02296,3.9153e-07,0.68,0.99,0
0.033558,-0.013381,0.026003,-1.2042e-05,0.0077972,0.00021716,0,0,0.047334,-0.020304,0,0.0011293,0,0,0,0.026005,-1.4273e-05,0.0077972,0.47444,0.011263,0.023125,3.9988e-07,0.69,0.99,0
0.034033,-0.013512,0.026206,-1.6888e-05,0.0078567,0.00024168,0,0,0.047708,-0.020471,0,0.0012568,0,0,0,0.026209,-1.9611e-05,0.0078567,0.52402,0.011349,0.02331,4.0942e-07,0.7,0.99,0
0.034512,-0.013631,0.026428,-2.1278e-05,0.0079221,0.00026082,0,0,0.048116,-0.020653,0,0.0013563,0,0,0,0.026431,-2.4411e-05,0.0079221,0.56091,0.011443,0.023512,4.1999e-07,0.71,0.99,0
0.034995,-0.013738,0.026665,-2.5052e-05,0.0079919,0.00027474,0,0,0.048549,-0.020844,0,0.0014287,0,0,0,0.026668,-2.8492e-05,0.0079919,0.58578,0.011544,0.023726,4.3141e-07,0.72,0.99,0
0.035483,-0.013834,0.026911,-2.8134e-05,0.008065,0.0002838,0,0,0.049001,-0.021042,0,0.0014758,0,0,0,0.026915,-3.177e-05,0.008065,0.59976,0.011649,0.023948,4.4352e-07,0.73,0.99,0
0.035975,-0.01392,0.027164,-3.0509e-05,0.0081401,0.00028848,0,0,0.049463,-0.021244,0,0.0015001,0,0,0,0.027168,-3.4232e-05,0.0081401,0.60421,0.011758,0.024175,4.5614e-07,0.74,0.99,0
0.036472,-0.013997,0.02742,-3.2207e-05,0.0082162,0.00028932,0,0,0.049929,-0.021446,0,0.0015045,0,0,0,0.027423,-3.592e-05,0.0082162,0.60058,0.011868,0.024403,4.6911e-07,0.75,0.99,0
0.036974,-0.014065,0.027674,-3.3289e-05,0.0082923,0.00028688,0,0,0.050393,-0.021647,0,0.0014918,0,0,0,0.027678,-3.691e-05,0.0082923,0.59028,0.011978,0.02463,4.8227e-07,0.76,0.99,0
0.03748,-0.014125,0.027926,-3.383e-05,0.0083676,0.0002817,0,0,0.050851,-0.021844,0,0.0014648,0,0,0,0.027929,-3.7295e-05,0.0083676,0.57464,0.012087,0.024854,4.955e-07,0.77,0.99,0
0.037991,-0.014178,0.028172,-3.3915e-05,0.0084414,0.00027427,0,0,0.0513,-0.022036,0,0.0014262,0,0,0,0.028175,-3.7175e-05,0.0084414,0.55482,0.012193,0.025072,5.0866e-07,0.78,0.99,0
0.038506,-0.014225,0.028411,-3.3625e-05,0.0085132,0.00026505,0,0,0.051734,-0.022222,0,0.0013782,0,0,0,0.028414,-3.6649e-05,0.0085132,0.53187,0.012297,0.025284,5.2166e-07,0.79,0.99,0
0.039026,-0.014266,0.028641,-3.304e-05,0.0085825,0.00025442,0,0,0.052153,-0.0224,0,0.001323,0,0,0,0.028644,-3.5807e-05,0.0085825,0.50663,0.012397,0.025488,5.3438e-07,0.8,0.99,0
0.039549,-0.014302,0.028862,-3.2228e-05,0.0086489,0.00024273,0,0,0.052554,-0.022571,0,0.0012622,0,0,0,0.028864,-3.4732e-05,0.0086489,0.47983,0.012493,0.025683,5.4675e-07,0.81,0.99,0
0.040077,-0.014333,0.029072,-3.1253e-05,0.0087122,0.00023026,0,0,0.052935,-0.022733,0,0.0011973,0,0,0,0.029074,-3.3493e-05,0.0087122,0.45206,0.012584,0.025868,5.5871e-07,0.82,0.99,0
0.040608,-0.014361,0.029271,-3.0167e-05,0.0087721,0.00021725,0,0,0.053296,-0.022886,0,0.0011297,0,0,0,0.029273,-3.215e-05,0.0087721,0.42376,0.012671,0.026044,5.7018e-07,0.83,0.99,0
0.041143,-0.014385,0.029458,-2.9015e-05,0.0088286,0.00020389,0,0,0.053636,-0.02303,0,0.0010602,0,0,0,0.029459,-3.0753e-05,0.0088286,0.3953,0.012752,0.026209,5.8112e-07,0.84,0.99,0
0.041681,-0.014405,0.029633,-2.7833e-05,0.0088816,0.00019035,0,0,0.053954,-0.023164,0,0.0009898,0,0,0,0.029635,-2.9341e-05,0.0088816,0.36695,0.012829,0.026363,5.915e-07,0.85,0.99,0
0.042222,-0.014423,0.029796,-2.6653e-05,0.0089309,0.00017673,0,0,0.05425,-0.02329,0,0.00091897,0,0,0,0.029798,-2.7947e-05,0.0089309,0.33891,0.0129,0.026507,6.0127e-07,0.86,0.99,0
0.042766,-0.014439,0.029948,-2.5497e-05,0.0089767,0.00016313,0,0,0.054525,-0.023406,0,0.00084826,0,0,0,0.029949,-2.6596e-05,0.0089767,0.31132,0.012966,0.02664,6.1043e-07,0.87,0.99,0
0.043312,-0.014452,0.030087,-2.4386e-05,0.0090188,0.00014962,0,0,0.054777,-0.023512,0,0.00077801,0,0,0,0.030088,-2.5307e-05,0.0090188,0.28428,0.013027,0.026763,6.1893e-07,0.88,0.99,0
0.043861,-0.014463,0.030214,-2.3333e-05,0.0090573,0.00013625,0,0,0.055008,-0.02361,0,0.00070849,0,0,0,0.030215,-2.4095e-05,0.0090573,0.25783,0.013083,0.026875,6.2678e-07,0.89,0.99,0
0.044412,-0.014473,0.03033,-2.2351e-05,0.0090923,0.00012305,0,0,0.055218,-0.023698,0,0.00063984,0,0,0,0.030331,-2.2971e-05,0.0090923,0.232,0.013133,0.026977,6.3396e-07,0.9,0.99,0
0.044966,-0.014481,0.030434,-2.1448e-05,0.0091237,0.00011003,0,0,0.055406,-0.023777,0,0.00057216,0,0,0,0.030434,-2.1943e-05,0.0091237,0.20678,0.013179,0.027068,6.4046e-07,0.91,0.99,0
0.045521,-0.014488,0.030526,-2.063e-05,0.0091517,9.721e-05,0,0,0.055574,-0.023848,0,0.00050549,0,0,0,0.030527,-2.1016e-05,0.0091517,0.18216,0.013219,0.027149,6.4627e-07,0.92,0.99,0
0.046077,-0.014494,0.030607,-1.9902e-05,0.0091762,8.4578e-05,0,0,0.055721,-0.02391,0,0.00043981,0,0,0,0.030608,-2.0194e-05,0.0091762,0.15809,0.013255,0.027221,6.5141e-07,0.93,0.99,0
0.046635,-0.014498,0.030677,-1.9267e-05,0.0091974,7.2126e-05,0,0,0.055848,-0.023963,0,0.00037506,0,0,0,0.030677,-1.948e-05,0.0091974,0.13452,0.013285,0.027282,6.5586e-07,0.94,0.99,0
0.047194,-0.014502,0.030736,-1.8727e-05,0.0092152,5.9838e-05,0,0,0.055954,-0.024008,0,0.00031116,0,0,0,0.030736,-1.8874e-05,0.0092152,0.11139,0.013311,0.027334,6.5962e-07,0.95,0.99,0
0.047754,-0.014505,0.030784,-1.8284e-05,0.0092298,4.7691e-05,0,0,0.056041,-0.024045,0,0.00024799,0,0,0,0.030784,-1.8379e-05,0.0092298,0.088649,0.013332,0.027376,6.627e-07,0.96,0.99,0
0.048315,-0.014507,0.030821,-1.7939e-05,0.009241,3.5662e-05,0,0,0.056109,-0.024073,0,0.00018544,0,0,0,0.030821,-1.7993e-05,0.009241,0.066213,0.013348,0.027409,6.6509e-07,0.97,0.99,0
0.048876,-0.014509,0.030848,-1.7693e-05,0.0092491,2.3724e-05,0,0,0.056157,-0.024094,0,0.00012336,0,0,0,0.030848,-1.7718e-05,0.0092491,0.044011,0.01336,0.027432,6.668e-07,0.98,0.99,0
0.049438,-0.01451,0.030864,-1.7544e-05,0.0092539,1.0402e-05,0,0,0.056186,-0.024106,0,5.409e-05,0,0,0,0.030864,-1.7553e-05,0.0092539,0.019286,0.013367,0.027446,6.6783e-07,0.99,0.99,0
0.049719,-0.01451,0.030869,-1.7495e-05,0.0092555,3.0304e-06,0,0,0.056195,-0.02411,0,1.5758e-05,0,0,0,0.030869,-1.7498e-05,0.0092555,0.0056136,0.013369,0.027451,6.6817e-07,1,0.99,0
0.00052327,-0.00054187,0.063069,0.017393,0.024139,-0.01552,0,0,0.10122,-0.017538,0,-0.080703,0,0,0,0.068512,0.01195,0.024139,-17.18,0.034867,0.051678,6.4832e-06,0,1,0
0.0010122,-0.0010249,0.05738,0.01055,0.020379,-0.011586,0,0,0.096203,-0.025556,0,-0.060245,0,0,0,0.060771,0.007159,0.020379,-12.975,0.029436,0.048464,4.9418e-06,0.01,1,0
0.0019241,-0.0018995,0.048105,0.0027937,0.015269,-0.0058826,0,0,0.085371,-0.032437,0,-0.030589,0,0,0,0.049004,0.0018943,0.015269,-7.0753,0.022056,0.04205,2.7121e-06,0.02,1,0
0.0027196,-0.0026263,0.042006,0.0012845,0.012987,-0.0033591,0,0,0.075449,-0.030427,0,-0.017467,0,0,0,0.042337,0.0009534,0.012987,-4.5738,0.018759,0.036872,1.719e-06,0.03,1,0
0.003433,-0.0032562,0.037923,0.00049267,0.011525,-0.0021992,0,0,0.068636,-0.028683,0,-0.011436,0,0,0,0.038076,0.00034015,0.011525,-3.2843,0.016647,0.033572,1.2577e-06,0.04,1,0
0.0040923,-0.0038147,0.035243,0.00020091,0.010633,-0.0015564,0,0,0.063985,-0.027124,0,-0.0080932,0,0,0,0.035324,0.00011939,0.010633,-2.4959,0.015359,0.031302,1.0059e-06,0.05,1,0
0.0047127,-0.0043175,0.033311,5.722e-05,0.010011,-0.0011652,0,0,0.060582,-0.025879,0,-0.0060592,0,0,0,0.033359,9.2057e-06,0.010011,-1.9758,0.01446,0.029643,8.4789e-07,0.06,1,0
0.005304,-0.0047742,0.031853,-1.5891e-05,0.0095513,-0.00090617,0,0,0.057986,-0.024875,0,-0.0047121,0,0,0,0.031884,-4.6146e-05,0.0095513,-1.6069,0.013796,0.028376,7.4048e-07,0.07,1,0
0.0058724,-0.0051916,0.030711,-5.6473e-05,0.0091964,-0.00072476,0,0,0.055938,-0.024057,0,-0.0037687,0,0,0,0.030731,-7.6495e-05,0.0091964,-1.3334,0.013284,0.027376,6.6311e-07,0.08,1,0
0.0064227,-0.0055744,0.029792,-7.9839e-05,0.0089136,-0.00059235,0,0,0.054283,-0.023383,0,-0.0030802,0,0,0,0.029806,-9.3602e-05,0.0089136,-1.1238,0.012875,0.026567,6.0497e-07,0.09,1,0
0.0069581,-0.0059261,0.029036,-9.3669e-05,0.0086828,-0.00049274,0,0,0.052919,-0.022819,0,-0.0025623,0,0,0,0.029046,-0.00010343,0.0086828,-0.95952,0.012542,0.025899,5.5986e-07,0.1,1,0
0.0074811,-0.0062497,0.028404,-0.00010193,0.0084908,-0.00041602,0,0,0.051776,-0.022341,0,-0.0021633,0,0,0,0.028412,-0.00010903,0.0084908,-0.82842,0.012264,0.02534,5.2394e-07,0.11,1,0
0.0079936,-0.0065472,0.027869,-0.00010681,0.0083285,-0.00035575,0,0,0.050804,-0.021932,0,-0.0018499,0,0,0,0.027874,-0.0001121,0.0083285,-0.72229,0.01203,0.024864,4.9471e-07,0.12,1,0
0.0084972,-0.0068205,0.027408,-0.00010959,0.0081895,-0.00030759,0,0,0.049968,-0.021578,0,-0.0015995,0,0,0,0.027412,-0.0001136,0.0081895,-0.63518,0.011829,0.024455,4.7049e-07,0.13,1,0
0.008993,-0.007071,0.027008,-0.000111,0.0080692,-0.0002684,0,0,0.049242,-0.021269,0,-0.0013957,0,0,0,0.027011,-0.0001141,0.0080692,-0.56261,0.011656,0.0241,4.5013e-07,0.14,1,0
0.009482,-0.0072999,0.026658,-0.00011147,0.0079641,-0.00023585,0,0,0.048605,-0.020996,0,-0.0012264,0,0,0,0.026661,-0.0001139,0.0079641,-0.50099,0.011504,0.023788,4.328e-07,0.15,1,0
0.0099651,-0.0075081,0.02635,-0.00011125,0.0078717,-0.00020813,0,0,0.048044,-0.020756,0,-0.0010823,0,0,0,0.026352,-0.00011316,0.0078717,-0.44736,0.01137,0.023513,4.179e-07,0.16,1,0
0.010443,-0.0076963,0.026078,-0.00011046,0.0077903,-0.00018376,0,0,0.047548,-0.020542,0,-0.00095555,0,0,0,0.02608,-0.00011196,0.0077903,-0.39916,0.011253,0.02327,4.0504e-07,0.17,1,0
0.010916,-0.0078651,0.025838,-0.00010912,0.0077188,-0.00016151,0,0,0.047111,-0.020353,0,-0.00083983,0,0,0,0.02584,-0.0001103,0.0077188,-0.35413,0.011149,0.023055,3.9393e-07,0.18,1,0
0.011385,-0.008015,0.025629,-0.00010723,0.0076565,-0.00014033,0,0,0.046728,-0.020186,0,-0.00072969,0,0,0,0.02563,-0.00010812,0.0076565,-0.31024,0.011059,0.022867,3.8437e-07,0.19,1,0
0.011851,-0.0081463,0.025449,-0.00010473,0.0076033,-0.00011933,0,0,0.046399,-0.020041,0,-0.00062052,0,0,0,0.02545,-0.00010538,0.0076033,-0.26572,0.010983,0.022704,3.7628e-07,0.2,1,0
0.012313,-0.0082592,0.025299,-0.00010156,0.0075593,-9.7804e-05,0,0,0.046124,-0.019918,0,-0.00050858,0,0,0,0.0253,-0.000102,0.0075593,-0.21909,0.010919,0.022568,3.696e-07,0.21,1,0
0.012773,-0.0083542,0.025181,-9.7652e-05,0.0075249,-7.5216e-05,0,0,0.045905,-0.019819,0,-0.00039112,0,0,0,0.025181,-9.7926e-05,0.0075249,-0.1693,0.010869,0.02246,3.6435e-07,0.22,1,0
0.013231,-0.0084314,0.025096,-9.2971e-05,0.0075008,-5.128e-05,0,0,0.045747,-0.019744,0,-0.00026666,0,0,0,0.025096,-9.3109e-05,0.0075008,-0.11581,0.010834,0.02238,3.6057e-07,0.23,1,0
0.013688,-0.0084912,0.025046,-8.7509e-05,0.0074876,-2.6012e-05,0,0,0.045652,-0.019695,0,-0.00013526,0,0,0,0.025046,-8.7558e-05,0.0074876,-0.05882,0.010815,0.022331,3.5833e-07,0.24,1,0
0.014144,-0.0085342,0.025034,-8.1334e-05,0.0074857,1.8157e-07,0,0,0.045625,-0.019674,0,9.443e-07,0,0,0,0.025034,-8.135e-05,0.0074857,0.00053887,0.010813,0.022316,3.5768e-07,0.25,1,0
0.014601,-0.008561,0.02506,-7.4634e-05,0.0074956,2.6386e-05,0,0,0.045667,-0.019683,0,0.00013721,0,0,0,0.02506,-7.4678e-05,0.0074956,0.059957,0.010827,0.022333,3.5866e-07,0.26,1,0
0.015058,-0.0085726,0.025123,-6.7777e-05,0.0075167,5.1046e-05,0,0,0.045778,-0.01972,0,0.00026544,0,0,0,0.025124,-6.7899e-05,0.0075167,0.11567,0.010857,0.022385,3.6125e-07,0.27,1,0
0.015516,-0.0085703,0.025221,-6.1368e-05,0.0075478,7.183e-05,0,0,0.04595,-0.019784,0,0.00037351,0,0,0,0.025221,-6.1596e-05,0.0075478,0.16224,0.010902,0.022466,3.6532e-07,0.28,1,0
0.015977,-0.0085561,0.025344,-5.6291e-05,0.0075864,8.554e-05,0,0,0.04617,-0.019871,0,0.00044481,0,0,0,0.025344,-5.6605e-05,0.0075864,0.19244,0.010958,0.022572,3.7058e-07,0.29,1,0
0.01644,-0.0085322,0.02548,-5.3461e-05,0.0076281,8.8246e-05,0,0,0.046416,-0.019972,0,0.00045888,0,0,0,0.025481,-5.3791e-05,0.0076281,0.19768,0.011018,0.022691,3.7649e-07,0.3,1,0
0.016905,-0.0085014,0.025611,-5.2942e-05,0.0076673,7.6002e-05,0,0,0.046653,-0.020073,0,0.00039521,0,0,0,0.025611,-5.3192e-05,0.0076673,0.16958,0.011075,0.022806,3.8224e-07,0.31,1,0
0.017373,-0.0084668,0.025712,-5.2401e-05,0.007698,4.6471e-05,0,0,0.046837,-0.020151,0,0.00024165,0,0,0,0.025713,-5.2521e-05,0.007698,0.1034,0.011119,0.022896,3.8677e-07,0.32,1,0
0.017842,-0.0084319,0.025763,-4.6875e-05,0.007715,8.9292e-07,0,0,0.046926,-0.020181,0,4.6433e-06,0,0,0,0.025764,-4.6944e-05,0.007715,0.0019345,0.011144,0.022937,3.8897e-07,0.33,1,0
0.018311,-0.0083999,0.025745,-3.4504e-05,0.0077133,-5.6236e-05,0,0,0.046884,-0.020144,0,-0.00029243,0,0,0,0.025746,-3.4761e-05,0.0077133,-0.12547,0.011141,0.022911,3.8799e-07,0.34,1,0
0.018779,-0.0083742,0.025641,-2.3436e-05,0.0076853,-0.00012222,0,0,0.046685,-0.020043,0,-0.00063552,0,0,0,0.025642,-2.4281e-05,0.0076853,-0.27413,0.011101,0.02281,3.8321e-07,0.35,1,0
0.019245,-0.008358,0.025431,-2.1332e-05,0.0076229,-0.00019927,0,0,0.046301,-0.019875,0,-0.0010362,0,0,0,0.025433,-2.3392e-05,0.0076229,-0.45113,0.011011,0.022624,3.74e-07,0.36,1,0
0.019705,-0.0083542,0.025106,-1.0806e-05,0.0075285,-0.00028463,0,0,0.045701,-0.019602,0,-0.0014801,0,0,0,0.02511,-1.4868e-05,0.0075285,-0.6536,0.010875,0.02233,3.5992e-07,0.37,1,0
0.020159,-0.0083651,0.024678,3.1694e-05,0.0074129,-0.00035872,0,0,0.044889,-0.019191,0,-0.0018653,0,0,0,0.024684,2.5348e-05,0.0074129,-0.83962,0.010707,0.02192,3.4147e-07,0.38,1,0
0.020603,-0.0083916,0.024169,8.0376e-05,0.0072748,-0.00040299,0,0,0.043925,-0.018705,0,-0.0020955,0,0,0,0.024177,7.2338e-05,0.0072748,-0.96484,0.010508,0.021431,3.2028e-07,0.39,1,0
0.021037,-0.0084341,0.023598,9.2507e-05,0.0071072,-0.00042487,0,0,0.042877,-0.018238,0,-0.0022093,0,0,0,0.023607,8.3442e-05,0.0071072,-1.0423,0.010266,0.020916,2.9808e-07,0.4,1,0
0.021461,-0.0084929,0.02299,9.1242e-05,0.0069243,-0.00043625,0,0,0.04177,-0.017766,0,-0.0022685,0,0,0,0.023,8.152e-05,0.0069243,-1.0981,0.010002,0.020377,2.7568e-07,0.41,1,0
0.021873,-0.0085673,0.022391,0.00014106,0.0067595,-0.000417,0,0,0.040641,-0.017208,0,-0.0021684,0,0,0,0.0224,0.0001319,0.0067595,-1.0783,0.0097637,0.019804,2.5401e-07,0.42,1,0
0.022273,-0.0086536,0.021893,0.00024688,0.0066419,-0.00032872,0,0,0.039652,-0.016627,0,-0.0017093,0,0,0,0.021899,0.00024057,0.0066419,-0.87172,0.0095938,0.019272,2.3593e-07,0.43,1,0
0.022666,-0.0087474,0.021552,0.00027163,0.006547,-0.0001835,0,0,0.039012,-0.016316,0,-0.00095421,0,0,0,0.021554,0.00026902,0.006547,-0.49583,0.0094567,0.018943,2.2448e-07,0.44,1,0
0.023054,-0.0088492,0.021354,0.00017243,0.0064578,-6.3845e-05,0,0,0.038729,-0.016342,0,-0.00033199,0,0,0,0.021354,0.00017193,0.0064578,-0.17408,0.009328,0.018843,2.1934e-07,0.45,1,0
0.02344,-0.0089625,0.021319,0.00017055,0.006447,1.6184e-05,0,0,0.038668,-0.016319,0,8.4156e-05,0,0,0,0.02132,0.00017027,0.006447,0.044699,0.0093123,0.018813,2.1828e-07,0.46,1,0
0.023827,-0.0090871,0.021449,0.00026911,0.0065154,0.0001351,0,0,0.038827,-0.01624,0,0.0007025,0,0,0,0.021451,0.00026734,0.0065154,0.367,0.0094111,0.018853,2.2124e-07,0.47,1,0
0.024217,-0.0092195,0.021722,0.00024649,0.0065906,0.00028125,0,0,0.039342,-0.016495,0,0.0014625,0,0,0,0.021727,0.00024168,0.0065906,0.75156,0.0095198,0.019119,2.3033e-07,0.48,1,0
0.024614,-0.009359,0.022155,0.00014122,0.0066887,0.00037274,0,0,0.040211,-0.017024,0,0.0019382,0,0,0,0.022162,0.0001338,0.0066887,0.97392,0.0096615,0.019591,2.4591e-07,0.49,1,0
0.025021,-0.0095096,0.022693,9.0327e-05,0.0068351,0.0003962,0,0,0.041231,-0.017536,0,0.0020603,0,0,0,0.022702,8.2203e-05,0.0068351,1.01,0.0098729,0.020112,2.6502e-07,0.5,1,0
0.025439,-0.0096749,0.023248,9.0628e-05,0.0070015,0.00038932,0,0,0.04224,-0.017968,0,0.0020245,0,0,0,0.023255,8.29e-05,0.0070015,0.96918,0.010113,0.020604,2.8488e-07,0.51,1,0
0.025866,-0.0098555,0.023771,7.8842e-05,0.0071551,0.00037256,0,0,0.043203,-0.018398,0,0.0019373,0,0,0,0.023778,7.1856e-05,0.0071551,0.90652,0.010335,0.021077,3.0465e-07,0.52,1,0
0.026303,-0.010051,0.024242,3.1399e-05,0.0072821,0.00033476,0,0,0.044096,-0.018852,0,0.0017407,0,0,0,0.024248,2.5777e-05,0.0072821,0.79726,0.010519,0.021531,3.2362e-07,0.53,1,0
0.026748,-0.01026,0.024642,-1.0205e-05,0.0073895,0.00026859,0,0,0.044856,-0.019239,0,0.0013967,0,0,0,0.024646,-1.3879e-05,0.0073895,0.62805,0.010674,0.021917,3.4028e-07,0.54,1,0
0.0272,-0.010483,0.024951,-2.0344e-05,0.0074791,0.00019202,0,0,0.045426,-0.019499,0,0.00099849,0,0,0,0.024953,-2.2273e-05,0.0074791,0.44283,0.010803,0.022196,3.5317e-07,0.55,1,0
0.027656,-0.010717,0.025157,-2.1899e-05,0.0075407,0.00012419,0,0,0.045804,-0.019663,0,0.00064577,0,0,0,0.025158,-2.2753e-05,0.0075407,0.28372,0.010892,0.022379,3.619e-07,0.56,1,0
0.028116,-0.010958,0.025272,-3.2029e-05,0.007572,6.7722e-05,0,0,0.04602,-0.019771,0,0.00035215,0,0,0,0.025272,-3.2335e-05,0.007572,0.15379,0.010937,0.022488,3.6695e-07,0.57,1,0
0.028577,-0.011205,0.025314,-4.3332e-05,0.0075812,2.0236e-05,0,0,0.046106,-0.019824,0,0.00010523,0,0,0,0.025314,-4.3407e-05,0.0075812,0.045794,0.010951,0.022534,3.6893e-07,0.58,1,0
0.029038,-0.011453,0.025301,-4.7807e-05,0.0075759,-1.5898e-05,0,0,0.046085,-0.019822,0,-8.2672e-05,0,0,0,0.025301,-4.7838e-05,0.0075759,-0.035974,0.010943,0.022526,3.6842e-07,0.59,1,0
0.029498,-0.0117,0.02525,-4.7216e-05,0.0075609,-3.6541e-05,0,0,0.045992,-0.019781,0,-0.00019001,0,0,0,0.02525,-4.7274e-05,0.0075609,-0.082733,0.010921,0.022481,3.6623e-07,0.6,1,0
0.029958,-0.011942,0.025183,-4.6373e-05,0.007541,-4.0703e-05,0,0,0.045869,-0.019727,0,-0.00021166,0,0,0,0.025183,-4.6442e-05,0.007541,-0.092315,0.010893,0.02242,3.6334e-07,0.61,1,0
0.030416,-0.012177,0.025121,-4.7538e-05,0.0075221,-3.0865e-05,0,0,0.045758,-0.019681,0,-0.0001605,0,0,0,0.025121,-4.7582e-05,0.0075221,-0.070144,0.010865,0.022366,3.6073e-07,0.62,1,0
0.030873,-0.012402,0.025082,-5.064e-05,0.0075094,-1.1067e-05,0,0,0.045689,-0.019656,0,-5.7547e-05,0,0,0,0.025082,-5.0657e-05,0.0075094,-0.025247,0.010847,0.022334,3.5912e-07,0.63,1,0
0.03133,-0.012615,0.025077,-5.4791e-05,0.0075066,1.4667e-05,0,0,0.045683,-0.01966,0,7.6268e-05,0,0,0,0.025077,-5.482e-05,0.0075066,0.033172,0.010843,0.022333,3.59e-07,0.64,1,0
0.031787,-0.012816,0.025112,-5.9142e-05,0.0075158,4.302e-05,0,0,0.04575,-0.019695,0,0.00022371,0,0,0,0.025112,-5.9249e-05,0.0075158,0.097349,0.010856,0.022367,3.606e-07,0.65,1,0
0.032245,-0.013004,0.025189,-6.3118e-05,0.0075378,7.1504e-05,0,0,0.045893,-0.019762,0,0.00037182,0,0,0,0.025189,-6.3371e-05,0.0075378,0.16135,0.010888,0.022439,3.6402e-07,0.66,1,0
0.032704,-0.013177,0.025307,-6.6378e-05,0.0075722,9.8369e-05,0,0,0.04611,-0.01986,0,0.00051152,0,0,0,0.025307,-6.6832e-05,0.0075722,0.22096,0.010938,0.022547,3.6922e-07,0.67,1,0
0.033167,-0.013336,0.025462,-6.8752e-05,0.007618,0.00012247,0,0,0.046395,-0.019986,0,0.00063687,0,0,0,0.025463,-6.9436e-05,0.007618,0.27347,0.011004,0.022687,3.7611e-07,0.68,1,0
0.033632,-0.013482,0.02565,-7.019e-05,0.007674,0.00014315,0,0,0.046738,-0.020135,0,0.00074438,0,0,0,0.025651,-7.1109e-05,0.007674,0.31737,0.011085,0.022856,3.8453e-07,0.69,1,0
0.034102,-0.013614,0.025866,-7.0716e-05,0.0077386,0.00016009,0,0,0.047131,-0.020304,0,0.00083244,0,0,0,0.025867,-7.185e-05,0.0077386,0.35207,0.011178,0.023049,3.9431e-07,0.7,1,0
0.034575,-0.013734,0.026103,-7.0396e-05,0.0078099,0.00017324,0,0,0.047563,-0.020489,0,0.00090084,0,0,0,0.026105,-7.1709e-05,0.0078099,0.37766,0.011281,0.02326,4.0525e-07,0.71,1,0
0.035053,-0.013842,0.026357,-6.9325e-05,0.0078864,0.00018276,0,0,0.048025,-0.020685,0,0.00095033,0,0,0,0.026359,-7.0771e-05,0.0078864,0.39473,0.011392,0.023485,4.1716e-07,0.72,1,0
0.035535,-0.013939,0.026623,-6.7614e-05,0.0079666,0.00018891,0,0,0.048506,-0.020889,0,0.00098235,0,0,0,0.026624,-6.9143e-05,0.0079666,0.40413,0.011507,0.02372,4.2984e-07,0.73,1,0
0.036023,-0.014026,0.026895,-6.5379e-05,0.0080489,0.00019207,0,0,0.049,-0.021097,0,0.00099874,0,0,0,0.026897,-6.6945e-05,0.0080489,0.40689,0.011626,0.02396,4.4308e-07,0.74,1,0
0.036515,-0.014104,0.02717,-6.2739e-05,0.0081322,0.0001926,0,0,0.049498,-0.021307,0,0.0010015,0,0,0,0.027172,-6.4298e-05,0.0081322,0.40406,0.011746,0.024202,4.5673e-07,0.75,1,0
0.037013,-0.014173,0.027444,-5.9803e-05,0.0082153,0.0001909,0,0,0.049995,-0.021515,0,0.00099268,0,0,0,0.027446,-6.1321e-05,0.0082153,0.39667,0.011867,0.024443,4.706e-07,0.76,1,0
0.037515,-0.014234,0.027714,-5.6673e-05,0.0082973,0.00018735,0,0,0.050484,-0.02172,0,0.00097422,0,0,0,0.027716,-5.8122e-05,0.0082973,0.38565,0.011985,0.024681,4.8454e-07,0.77,1,0
0.038023,-0.014288,0.027978,-5.3437e-05,0.0083775,0.00018229,0,0,0.050962,-0.02192,0,0.00094792,0,0,0,0.02798,-5.4797e-05,0.0083775,0.37184,0.012101,0.024913,4.9843e-07,0.78,1,0
0.038535,-0.014336,0.028234,-5.0167e-05,0.0084552,0.00017604,0,0,0.051426,-0.022114,0,0.0009154,0,0,0,0.028236,-5.1426e-05,0.0084552,0.35596,0.012213,0.025137,5.1213e-07,0.79,1,0
0.039051,-0.014378,0.028481,-4.6927e-05,0.0085301,0.00016886,0,0,0.051871,-0.0223,0,0.00087806,0,0,0,0.028482,-4.8076e-05,0.0085301,0.3386,0.012321,0.025353,5.2555e-07,0.8,1,0
0.039572,-0.014415,0.028716,-4.3762e-05,0.0086017,0.00016098,0,0,0.052297,-0.022478,0,0.00083709,0,0,0,0.028717,-4.4799e-05,0.0086017,0.32026,0.012425,0.02556,5.3859e-07,0.81,1,0
0.040097,-0.014447,0.02894,-4.0712e-05,0.0086697,0.0001526,0,0,0.052702,-0.022647,0,0.00079351,0,0,0,0.028941,-4.1637e-05,0.0086697,0.30132,0.012523,0.025756,5.5119e-07,0.82,1,0
0.040626,-0.014475,0.029151,-3.7802e-05,0.008734,0.00014387,0,0,0.053085,-0.022807,0,0.00074815,0,0,0,0.029152,-3.8619e-05,0.008734,0.28211,0.012616,0.025942,5.6327e-07,0.83,1,0
0.041159,-0.0145,0.02935,-3.5053e-05,0.0087945,0.00013494,0,0,0.053444,-0.022957,0,0.00070166,0,0,0,0.029351,-3.5768e-05,0.0087945,0.26285,0.012703,0.026116,5.7479e-07,0.84,1,0
0.041695,-0.014521,0.029536,-3.2478e-05,0.008851,0.00012589,0,0,0.053781,-0.023097,0,0.0006546,0,0,0,0.029536,-3.3096e-05,0.008851,0.24373,0.012785,0.026279,5.8571e-07,0.85,1,0
0.042234,-0.01454,0.029709,-3.0083e-05,0.0089036,0.0001168,0,0,0.054093,-0.023228,0,0.00060738,0,0,0,0.029709,-3.0613e-05,0.0089036,0.22488,0.012861,0.026431,5.9598e-07,0.86,1,0
0.042777,-0.014556,0.029869,-2.7874e-05,0.0089522,0.00010775,0,0,0.054383,-0.023348,0,0.00056031,0,0,0,0.029869,-2.8323e-05,0.0089522,0.20638,0.012931,0.026571,6.0559e-07,0.87,1,0
0.043322,-0.014569,0.030016,-2.5851e-05,0.008997,9.8775e-05,0,0,0.054649,-0.023459,0,0.00051363,0,0,0,0.030016,-2.6227e-05,0.008997,0.18828,0.012996,0.0267,6.1452e-07,0.88,1,0
0.04387,-0.014581,0.03015,-2.4012e-05,0.0090378,8.9902e-05,0,0,0.054892,-0.023561,0,0.00046749,0,0,0,0.03015,-2.4322e-05,0.0090378,0.17063,0.013055,0.026818,6.2276e-07,0.89,1,0
0.04442,-0.014591,0.030272,-2.2354e-05,0.0090748,8.1153e-05,0,0,0.055112,-0.023653,0,0.000422,0,0,0,0.030272,-2.2606e-05,0.0090748,0.15342,0.013108,0.026924,6.3028e-07,0.9,1,0
0.044972,-0.0146,0.030381,-2.0873e-05,0.0091081,7.2539e-05,0,0,0.05531,-0.023735,0,0.0003772,0,0,0,0.030381,-2.1074e-05,0.0091081,0.13666,0.013156,0.02702,6.3709e-07,0.91,1,0
0.045526,-0.014607,0.030478,-1.9565e-05,0.0091376,6.4062e-05,0,0,0.055486,-0.023809,0,0.00033312,0,0,0,0.030478,-1.9722e-05,0.0091376,0.12032,0.013199,0.027106,6.4319e-07,0.92,1,0
0.046082,-0.014613,0.030564,-1.8425e-05,0.0091635,5.5719e-05,0,0,0.05564,-0.023873,0,0.00028974,0,0,0,0.030564,-1.8543e-05,0.0091635,0.10436,0.013236,0.02718,6.4856e-07,0.93,1,0
0.046639,-0.014618,0.030637,-1.7448e-05,0.0091858,4.7502e-05,0,0,0.055773,-0.023929,0,0.00024701,0,0,0,0.030637,-1.7534e-05,0.0091858,0.088765,0.013268,0.027245,6.5322e-07,0.94,1,0
0.047197,-0.014622,0.030699,-1.6629e-05,0.0092046,3.9399e-05,0,0,0.055885,-0.023975,0,0.00020487,0,0,0,0.030699,-1.6689e-05,0.0092046,0.073479,0.013296,0.027299,6.5716e-07,0.95,1,0
0.047757,-0.014625,0.030749,-1.5965e-05,0.0092199,3.1395e-05,0,0,0.055976,-0.024013,0,0.00016325,0,0,0,0.030749,-1.6003e-05,0.0092199,0.058459,0.013318,0.027343,6.6037e-07,0.96,1,0
0.048317,-0.014628,0.030788,-1.5452e-05,0.0092318,2.3473e-05,0,0,0.056046,-0.024043,0,0.00012206,0,0,0,0.030788,-1.5474e-05,0.0092318,0.043653,0.013335,0.027377,6.6287e-07,0.97,1,0
0.048877,-0.014629,0.030816,-1.5088e-05,0.0092402,1.5613e-05,0,0,0.056097,-0.024064,0,8.1188e-05,0,0,0,0.030816,-1.5098e-05,0.0092402,0.029011,0.013347,0.027402,6.6466e-07,0.98,1,0
0.049439,-0.01463,0.030832,-1.487e-05,0.0092453,6.2531e-06,0,0,0.056127,-0.024076,0,3.2516e-05,0,0,0,0.030832,-1.4874e-05,0.0092453,0.011613,0.013354,0.027416,6.6573e-07,0.99,1,0
0.049719,-0.014631,0.030838,-1.4798e-05,0.009247,8.098e-07,0,0,0.056137,-0.024081,0,4.2109e-06,0,0,0,0.030838,-1.4799e-05,0.009247,0.0015024,0.013357,0.027421,6.6609e-07,1,1,0
